# 4
   1.00000000000000     
   9.81490               0.0000000000000000  0.0000000000000000 
   0.0000000000000000  9.81490                  0.0000000000000000 
   0.0000000000000000  0.0000000000000000  9.81490                 
   O  H
31 62
Cartesian
        -4.121490          3.774900        -8.534100
         1.244400         -1.858430        -3.846610
         0.847649          5.526250        -2.431580
         0.684751          3.760070        -5.815690
         0.682543         -2.315850         1.639680
         7.348220          0.182885         6.864190
         7.069670          3.855300        -2.381460
         5.638790          1.875560        -2.055580
         0.134542          2.095680        11.617900
        -7.068120         -1.396180        -0.215806
        -1.571270          3.853680         0.217052
         2.672740          2.088450         6.926840
        -0.363623          3.248020        -3.227670
        -2.680800         -1.801800       -11.077800
        -3.172150          0.430758        -5.550770
        -6.420970         -3.829060        -1.469530
        -7.539450          1.346490         9.330740
         4.575530         -8.434830         0.903021
        -3.109250          6.415530         4.110960
       -11.346100         -0.500900         2.328890
        -6.460610         -6.250460        -5.495570
         4.053160          1.165930        13.535500
         1.426180          0.356380         3.663750
         3.668900         -1.634060        -4.908800
        -6.344460         -4.480400        -8.708190
        -5.245210         -2.600000         2.571700
         5.445390         -3.414470        -2.827230
         6.255530          3.499590         3.913280
        -0.641972         -3.399910        -0.473218
        -3.907750         -0.877841         0.964787
         9.538550         -3.290370        -5.894230
        -4.574510          4.614130        -8.620150
        -3.155760          3.993410        -9.011100
         0.666790         -1.990700        -4.627000
         1.112380         -2.699040        -3.252290
         0.482062          4.576600        -2.463610
         1.667020          5.632210        -1.951930
         1.691440         -5.821100        -5.815370
         0.286866          3.462570        -4.894900
         0.389148         -1.475740         1.855500
         0.477784         -2.737350         2.445580
         6.709390          0.144729         6.075870
         7.065000         -0.602612         7.346260
         6.643750          4.527620        -2.906670
         6.382350          3.183450        -1.903370
         5.043030          1.643570        -1.305380
         6.139580          1.128150        -2.112440
        -0.607964          2.518000        11.290600
         0.451432          2.536680        12.549600
        -7.371760         -0.327859        -0.305703
        -7.545710         -1.829510         0.569508
        -1.920150          3.923570        -0.694245
        -1.363550          4.849630         0.230240
         1.777590          1.920070         6.785870
         2.897450          2.693900         6.206710
        -0.135406          2.334560        -3.373520
        -1.355920          3.043990        -3.058590
        -3.090160         -1.519270       -10.218600
        -2.028300         -2.500900        -0.824569
        -3.030900          1.391810        -5.751120
        -4.274570          0.491253        -5.734220
        -6.303710         -4.218900        -0.431030
        -6.831980         -2.919230       -10.910900
        -7.503000          1.892120         8.407590
        -8.185530          1.610000         9.925940
         3.676230         -8.495760         0.570742
         4.675540         -7.493630         1.137160
        -3.558440          6.179330         5.146550
        -3.872680          6.608750        -6.211330
        -0.943746          0.319470         1.813170
       -12.197200         -0.174555         2.984480
        -5.796560         -5.668790        -5.219770
        -5.982930         -7.189810        -5.682360
         3.042470          0.962486        13.385600
         4.214070          1.030890        12.516000
         0.665312          0.349165         2.859950
         0.734094         -9.334360         4.585820
         2.870650         -1.979850        -4.344510
         4.364960         -1.813410        -4.187140
        -5.945470         -3.744510        -8.262990
        -6.953380          4.642440        -8.170220
         4.232560         -2.404040         3.426530
        -5.032890         -1.895780         1.955220
         5.871310         -3.028560        -1.981740
         4.540790         -3.531140        -2.398910
         6.063100          3.700460         2.936340
         6.571290         14.177400         3.894790
         0.069669         -3.740990        -1.385100
        -0.093721         -2.863940         0.270345
        -4.343630          0.097886         0.878009
        -3.044910         -0.800861        -8.586310
         8.538970         -3.402610         4.008420
         9.865690         -4.202590         3.994880
