bilayer_2                               
   1.00000000000000     
    14.6976995467999991    0.0000000000000000    0.0000000000000000
    -7.3488497733999996   12.7285811846999994    0.0000000000000000
     0.0000000000000000    0.0000000000000000   49.2004013061999999
   H    O 
    96    48
Selective dynamics
Direct
  0.1681399929999969  0.0612300000000019  0.2850700010000011   T   T   T
  0.3930900089999980  0.3318600249999974  0.2850700010000011   T   T   T
  0.1069100050000031  0.1681400040000014  0.2124799870000018   T   T   T
  0.0612300009999984  0.3930900060000013  0.2124799870000018   T   T   T
  0.1681399920000004  0.1069100039999995  0.2124799870000018   T   T   T
  0.3930899900000000  0.0612300000000019  0.2124799870000018   T   T   T
  0.0612300069999989  0.1681400040000014  0.2850700010000011   T   T   T
  0.3318600129999965  0.3930900060000013  0.2850700010000011   T   T   T
  0.1654099929999973  0.0000000000000000  0.1808999980000010   T   T   T
  0.2261699989999997  0.0000000000000000  0.2078599960000034   T   T   T
  0.3345899890000013  0.3345899879999976  0.1808999980000010   T   T   T
  0.2738300019999969  0.2738300039999970  0.2078599960000034   T   T   T
  0.0000000049999969  0.1654100029999981  0.1808999980000010   T   T   T
  0.0000000029999967  0.2261700059999967  0.2078599960000034   T   T   T
  0.3345899899999978  0.0000000000000000  0.2534799909999990   T   T   T
  0.2738300010000003  0.0000000000000000  0.2804599930000009   T   T   T
  0.1654099980000012  0.1654100029999981  0.2534799909999990   T   T   T
  0.2261700030000000  0.2261700059999967  0.2804599930000009   T   T   T
  0.9999999990000035  0.3345899879999976  0.2534799909999990   T   T   T
  0.0000000020000002  0.2738300039999970  0.2804599930000009   T   T   T
  0.6681399770000027  0.0612300000000019  0.2850700010000011   T   T   T
  0.8930900089999980  0.3318600249999974  0.2850700010000011   T   T   T
  0.4387700119999991  0.1069100039999995  0.2850700010000011   T   T   T
  0.6069099560000026  0.1681400040000014  0.2124799870000018   T   T   T
  0.5612299769999964  0.3930900060000013  0.2124799870000018   T   T   T
  0.4387700159999994  0.3318600249999974  0.2124799870000018   T   T   T
  0.6681399920000004  0.1069100039999995  0.2124799870000018   T   T   T
  0.8930899900000000  0.0612300000000019  0.2124799870000018   T   T   T
  0.5612299820000004  0.1681400040000014  0.2850700010000011   T   T   T
  0.8318599640000031  0.3930900060000013  0.2850700010000011   T   T   T
  0.6654099770000030  0.0000000000000000  0.1808999980000010   T   T   T
  0.7261700319999989  0.0000000000000000  0.2078599960000034   T   T   T
  0.8345899729999999  0.3345899879999976  0.1808999980000010   T   T   T
  0.7738299860000026  0.2738300039999970  0.2078599960000034   T   T   T
  0.4999999970000033  0.1654100029999981  0.1808999980000010   T   T   T
  0.5000000029999967  0.2261700059999967  0.2078599960000034   T   T   T
  0.8345899899999978  0.0000000000000000  0.2534799909999990   T   T   T
  0.7738300010000003  0.0000000000000000  0.2804599930000009   T   T   T
  0.6654099739999992  0.1654100029999981  0.2534799909999990   T   T   T
  0.7261700350000027  0.2261700059999967  0.2804599930000009   T   T   T
  0.5000000149999977  0.3345899879999976  0.2534799909999990   T   T   T
  0.5000000180000015  0.2738300039999970  0.2804599930000009   T   T   T
  0.1681400069999981  0.5612300279999971  0.2850700010000011   T   T   T
  0.3930900300000033  0.8318600340000017  0.2850700010000011   T   T   T
  0.3318600019999991  0.4387699910000009  0.2124799870000018   T   T   T
  0.1069100189999972  0.6681400319999966  0.2124799870000018   T   T   T
  0.0612300160000032  0.8930900530000017  0.2124799870000018   T   T   T
  0.1681400129999986  0.6069100129999967  0.2124799870000018   T   T   T
  0.3930900209999990  0.5612300279999971  0.2124799870000018   T   T   T
  0.0612300129999994  0.6681400319999966  0.2850700010000011   T   T   T
  0.3318600360000019  0.8930900530000017  0.2850700010000011   T   T   T
  0.1069099890000018  0.4387699910000009  0.2850700010000011   T   T   T
  0.1654099980000012  0.5000000100000008  0.1808999980000010   T   T   T
  0.2261700039999965  0.5000000100000008  0.2078599960000034   T   T   T
  0.3345900130000032  0.8345900349999980  0.1808999980000010   T   T   T
  0.2738300070000008  0.7738300130000013  0.2078599960000034   T   T   T
  0.0000000269999987  0.6654100319999969  0.1808999980000010   T   T   T
  0.0000000109999974  0.7261700529999970  0.2078599960000034   T   T   T
  0.3345899950000017  0.5000000100000008  0.2534799909999990   T   T   T
  0.2738300059999972  0.5000000100000008  0.2804599930000009   T   T   T
  0.1654100209999996  0.6654100319999969  0.2534799909999990   T   T   T
  0.2261700099999970  0.7261700529999970  0.2804599930000009   T   T   T
  0.0000000220000018  0.8345900349999980  0.2534799909999990   T   T   T
  0.0000000060000005  0.7738300130000013  0.2804599930000009   T   T   T
  0.6681400069999981  0.5612300279999971  0.2850700010000011   T   T   T
  0.8930900300000033  0.8318600340000017  0.2850700010000011   T   T   T
  0.4387700329999973  0.6069100129999967  0.2850700010000011   T   T   T
  0.8318599699999965  0.4387699910000009  0.2124799870000018   T   T   T
  0.6069099870000016  0.6681400319999966  0.2124799870000018   T   T   T
  0.5612300160000032  0.8930900530000017  0.2124799870000018   T   T   T
  0.4387700369999976  0.8318600340000017  0.2124799870000018   T   T   T
  0.6681400129999986  0.6069100129999967  0.2124799870000018   T   T   T
  0.8930900530000017  0.5612300279999971  0.2124799870000018   T   T   T
  0.5612300129999994  0.6681400319999966  0.2850700010000011   T   T   T
  0.8318600039999993  0.8930900530000017  0.2850700010000011   T   T   T
  0.6069099560000026  0.4387699910000009  0.2850700010000011   T   T   T
  0.6654099659999986  0.5000000100000008  0.1808999980000010   T   T   T
  0.7261700199999979  0.5000000100000008  0.2078599960000034   T   T   T
  0.8345900130000032  0.8345900349999980  0.1808999980000010   T   T   T
  0.7738300070000008  0.7738300130000013  0.2078599960000034   T   T   T
  0.5000000269999987  0.6654100319999969  0.1808999980000010   T   T   T
  0.5000000109999974  0.7261700529999970  0.2078599960000034   T   T   T
  0.8345899790000004  0.5000000100000008  0.2534799909999990   T   T   T
  0.7738299889999993  0.5000000100000008  0.2804599930000009   T   T   T
  0.6654100040000017  0.6654100319999969  0.2534799909999990   T   T   T
  0.7261700419999997  0.7261700529999970  0.2804599930000009   T   T   T
  0.5000000220000018  0.8345900349999980  0.2534799909999990   T   T   T
  0.5000000060000005  0.7738300130000013  0.2804599930000009   T   T   T
  0.9387699789999999  0.1069100039999995  0.2850700010000011   T   T   T
  0.9387699830000003  0.3318600249999974  0.2124799870000018   T   T   T
  0.9387700329999973  0.6069100129999967  0.2850700010000011   T   T   T
  0.9387700039999984  0.8318600340000017  0.2124799870000018   T   T   T
  0.3318600229999973  0.9387700010000017  0.2124799870000018   T   T   T
  0.1069100100000000  0.9387700010000017  0.2850700010000011   T   T   T
  0.8318599910000017  0.9387700010000017  0.2124799870000018   T   T   T
  0.6069099770000008  0.9387700010000017  0.2850700010000011   T   T   T
  0.1633199999999988  0.0000000000000000  0.2013399980000017   T   T   T
  0.1696999930000018  0.0000000000000000  0.2922200000000004   T   T   T
  0.3366799940000007  0.3366799880000002  0.2013399980000017   T   T   T
  0.3302999940000007  0.3302999980000010  0.2922200000000004   T   T   T
  0.0000000009999965  0.1633200030000026  0.2013399980000017   T   T   T
  0.0000000000000000  0.1696999930000018  0.2922200000000004   T   T   T
  0.3366800000000012  0.0000000000000000  0.2739199920000033   T   T   T
  0.3302999900000003  0.0000000000000000  0.2196400059999988   T   T   T
  0.1633200010000024  0.1633200030000026  0.2739199920000033   T   T   T
  0.1696999930000018  0.1696999930000018  0.2196400059999988   T   T   T
  0.9999999939999995  0.3366799880000002  0.2739199920000033   T   T   T
  0.0000000040000003  0.3302999980000010  0.2196400059999988   T   T   T
  0.6633199999999988  0.0000000000000000  0.2013399980000017   T   T   T
  0.6697000420000023  0.0000000000000000  0.2922200000000004   T   T   T
  0.8366799619999981  0.3366799880000002  0.2013399980000017   T   T   T
  0.8302999779999993  0.3302999980000010  0.2922200000000004   T   T   T
  0.5000000169999979  0.1633200030000026  0.2013399980000017   T   T   T
  0.4999999919999993  0.1696999930000018  0.2922200000000004   T   T   T
  0.8366799670000020  0.0000000000000000  0.2739199920000033   T   T   T
  0.8302999900000003  0.0000000000000000  0.2196400059999988   T   T   T
  0.6633199850000011  0.1633200030000026  0.2739199920000033   T   T   T
  0.6697000340000017  0.1696999930000018  0.2196400059999988   T   T   T
  0.4999999939999995  0.3366799880000002  0.2739199920000033   T   T   T
  0.5000000200000017  0.3302999980000010  0.2196400059999988   T   T   T
  0.1633200050000028  0.5000000100000008  0.2013399980000017   T   T   T
  0.1696999979999987  0.5000000100000008  0.2922200000000004   T   T   T
  0.3366800339999969  0.8366800350000005  0.2013399980000017   T   T   T
  0.3302999799999995  0.8302999699999987  0.2922200000000004   T   T   T
  0.0000000149999977  0.6633200309999978  0.2013399980000017   T   T   T
  0.9999999899999992  0.6697000209999970  0.2922200000000004   T   T   T
  0.3366800040000015  0.5000000100000008  0.2739199920000033   T   T   T
  0.3302999949999972  0.5000000100000008  0.2196400059999988   T   T   T
  0.1633200160000001  0.6633200309999978  0.2739199920000033   T   T   T
  0.1696999830000010  0.6697000209999970  0.2196400059999988   T   T   T
  0.0000000340000028  0.8366800350000005  0.2739199920000033   T   T   T
  0.9999999899999992  0.8302999699999987  0.2196400059999988   T   T   T
  0.6633199890000014  0.5000000100000008  0.2013399980000017   T   T   T
  0.6697000309999979  0.5000000100000008  0.2922200000000004   T   T   T
  0.8366800009999977  0.8366800350000005  0.2013399980000017   T   T   T
  0.8302999799999995  0.8302999699999987  0.2922200000000004   T   T   T
  0.5000000149999977  0.6633200309999978  0.2013399980000017   T   T   T
  0.4999999899999992  0.6697000209999970  0.2922200000000004   T   T   T
  0.8366799559999976  0.5000000100000008  0.2739199920000033   T   T   T
  0.8302999790000030  0.5000000100000008  0.2196400059999988   T   T   T
  0.6633200160000001  0.6633200309999978  0.2739199920000033   T   T   T
  0.6697000320000015  0.6697000209999970  0.2196400059999988   T   T   T
  0.5000000340000028  0.8366800350000005  0.2739199920000033   T   T   T
  0.4999999899999992  0.8302999699999987  0.2196400059999988   T   T   T
 
  0.00000000E+00  0.00000000E+00  0.00000000E+00
  0.00000000E+00  0.00000000E+00  0.00000000E+00
  0.00000000E+00  0.00000000E+00  0.00000000E+00
  0.00000000E+00  0.00000000E+00  0.00000000E+00
  0.00000000E+00  0.00000000E+00  0.00000000E+00
  0.00000000E+00  0.00000000E+00  0.00000000E+00
  0.00000000E+00  0.00000000E+00  0.00000000E+00
  0.00000000E+00  0.00000000E+00  0.00000000E+00
  0.00000000E+00  0.00000000E+00  0.00000000E+00
  0.00000000E+00  0.00000000E+00  0.00000000E+00
  0.00000000E+00  0.00000000E+00  0.00000000E+00
  0.00000000E+00  0.00000000E+00  0.00000000E+00
  0.00000000E+00  0.00000000E+00  0.00000000E+00
  0.00000000E+00  0.00000000E+00  0.00000000E+00
  0.00000000E+00  0.00000000E+00  0.00000000E+00
  0.00000000E+00  0.00000000E+00  0.00000000E+00
  0.00000000E+00  0.00000000E+00  0.00000000E+00
  0.00000000E+00  0.00000000E+00  0.00000000E+00
  0.00000000E+00  0.00000000E+00  0.00000000E+00
  0.00000000E+00  0.00000000E+00  0.00000000E+00
  0.00000000E+00  0.00000000E+00  0.00000000E+00
  0.00000000E+00  0.00000000E+00  0.00000000E+00
  0.00000000E+00  0.00000000E+00  0.00000000E+00
  0.00000000E+00  0.00000000E+00  0.00000000E+00
  0.00000000E+00  0.00000000E+00  0.00000000E+00
  0.00000000E+00  0.00000000E+00  0.00000000E+00
  0.00000000E+00  0.00000000E+00  0.00000000E+00
  0.00000000E+00  0.00000000E+00  0.00000000E+00
  0.00000000E+00  0.00000000E+00  0.00000000E+00
  0.00000000E+00  0.00000000E+00  0.00000000E+00
  0.00000000E+00  0.00000000E+00  0.00000000E+00
  0.00000000E+00  0.00000000E+00  0.00000000E+00
  0.00000000E+00  0.00000000E+00  0.00000000E+00
  0.00000000E+00  0.00000000E+00  0.00000000E+00
  0.00000000E+00  0.00000000E+00  0.00000000E+00
  0.00000000E+00  0.00000000E+00  0.00000000E+00
  0.00000000E+00  0.00000000E+00  0.00000000E+00
  0.00000000E+00  0.00000000E+00  0.00000000E+00
  0.00000000E+00  0.00000000E+00  0.00000000E+00
  0.00000000E+00  0.00000000E+00  0.00000000E+00
  0.00000000E+00  0.00000000E+00  0.00000000E+00
  0.00000000E+00  0.00000000E+00  0.00000000E+00
  0.00000000E+00  0.00000000E+00  0.00000000E+00
  0.00000000E+00  0.00000000E+00  0.00000000E+00
  0.00000000E+00  0.00000000E+00  0.00000000E+00
  0.00000000E+00  0.00000000E+00  0.00000000E+00
  0.00000000E+00  0.00000000E+00  0.00000000E+00
  0.00000000E+00  0.00000000E+00  0.00000000E+00
  0.00000000E+00  0.00000000E+00  0.00000000E+00
  0.00000000E+00  0.00000000E+00  0.00000000E+00
  0.00000000E+00  0.00000000E+00  0.00000000E+00
  0.00000000E+00  0.00000000E+00  0.00000000E+00
  0.00000000E+00  0.00000000E+00  0.00000000E+00
  0.00000000E+00  0.00000000E+00  0.00000000E+00
  0.00000000E+00  0.00000000E+00  0.00000000E+00
  0.00000000E+00  0.00000000E+00  0.00000000E+00
  0.00000000E+00  0.00000000E+00  0.00000000E+00
  0.00000000E+00  0.00000000E+00  0.00000000E+00
  0.00000000E+00  0.00000000E+00  0.00000000E+00
  0.00000000E+00  0.00000000E+00  0.00000000E+00
  0.00000000E+00  0.00000000E+00  0.00000000E+00
  0.00000000E+00  0.00000000E+00  0.00000000E+00
  0.00000000E+00  0.00000000E+00  0.00000000E+00
  0.00000000E+00  0.00000000E+00  0.00000000E+00
  0.00000000E+00  0.00000000E+00  0.00000000E+00
  0.00000000E+00  0.00000000E+00  0.00000000E+00
  0.00000000E+00  0.00000000E+00  0.00000000E+00
  0.00000000E+00  0.00000000E+00  0.00000000E+00
  0.00000000E+00  0.00000000E+00  0.00000000E+00
  0.00000000E+00  0.00000000E+00  0.00000000E+00
  0.00000000E+00  0.00000000E+00  0.00000000E+00
  0.00000000E+00  0.00000000E+00  0.00000000E+00
  0.00000000E+00  0.00000000E+00  0.00000000E+00
  0.00000000E+00  0.00000000E+00  0.00000000E+00
  0.00000000E+00  0.00000000E+00  0.00000000E+00
  0.00000000E+00  0.00000000E+00  0.00000000E+00
  0.00000000E+00  0.00000000E+00  0.00000000E+00
  0.00000000E+00  0.00000000E+00  0.00000000E+00
  0.00000000E+00  0.00000000E+00  0.00000000E+00
  0.00000000E+00  0.00000000E+00  0.00000000E+00
  0.00000000E+00  0.00000000E+00  0.00000000E+00
  0.00000000E+00  0.00000000E+00  0.00000000E+00
  0.00000000E+00  0.00000000E+00  0.00000000E+00
  0.00000000E+00  0.00000000E+00  0.00000000E+00
  0.00000000E+00  0.00000000E+00  0.00000000E+00
  0.00000000E+00  0.00000000E+00  0.00000000E+00
  0.00000000E+00  0.00000000E+00  0.00000000E+00
  0.00000000E+00  0.00000000E+00  0.00000000E+00
  0.00000000E+00  0.00000000E+00  0.00000000E+00
  0.00000000E+00  0.00000000E+00  0.00000000E+00
  0.00000000E+00  0.00000000E+00  0.00000000E+00
  0.00000000E+00  0.00000000E+00  0.00000000E+00
  0.00000000E+00  0.00000000E+00  0.00000000E+00
  0.00000000E+00  0.00000000E+00  0.00000000E+00
  0.00000000E+00  0.00000000E+00  0.00000000E+00
  0.00000000E+00  0.00000000E+00  0.00000000E+00
  0.00000000E+00  0.00000000E+00  0.00000000E+00
  0.00000000E+00  0.00000000E+00  0.00000000E+00
  0.00000000E+00  0.00000000E+00  0.00000000E+00
  0.00000000E+00  0.00000000E+00  0.00000000E+00
  0.00000000E+00  0.00000000E+00  0.00000000E+00
  0.00000000E+00  0.00000000E+00  0.00000000E+00
  0.00000000E+00  0.00000000E+00  0.00000000E+00
  0.00000000E+00  0.00000000E+00  0.00000000E+00
  0.00000000E+00  0.00000000E+00  0.00000000E+00
  0.00000000E+00  0.00000000E+00  0.00000000E+00
  0.00000000E+00  0.00000000E+00  0.00000000E+00
  0.00000000E+00  0.00000000E+00  0.00000000E+00
  0.00000000E+00  0.00000000E+00  0.00000000E+00
  0.00000000E+00  0.00000000E+00  0.00000000E+00
  0.00000000E+00  0.00000000E+00  0.00000000E+00
  0.00000000E+00  0.00000000E+00  0.00000000E+00
  0.00000000E+00  0.00000000E+00  0.00000000E+00
  0.00000000E+00  0.00000000E+00  0.00000000E+00
  0.00000000E+00  0.00000000E+00  0.00000000E+00
  0.00000000E+00  0.00000000E+00  0.00000000E+00
  0.00000000E+00  0.00000000E+00  0.00000000E+00
  0.00000000E+00  0.00000000E+00  0.00000000E+00
  0.00000000E+00  0.00000000E+00  0.00000000E+00
  0.00000000E+00  0.00000000E+00  0.00000000E+00
  0.00000000E+00  0.00000000E+00  0.00000000E+00
  0.00000000E+00  0.00000000E+00  0.00000000E+00
  0.00000000E+00  0.00000000E+00  0.00000000E+00
  0.00000000E+00  0.00000000E+00  0.00000000E+00
  0.00000000E+00  0.00000000E+00  0.00000000E+00
  0.00000000E+00  0.00000000E+00  0.00000000E+00
  0.00000000E+00  0.00000000E+00  0.00000000E+00
  0.00000000E+00  0.00000000E+00  0.00000000E+00
  0.00000000E+00  0.00000000E+00  0.00000000E+00
  0.00000000E+00  0.00000000E+00  0.00000000E+00
  0.00000000E+00  0.00000000E+00  0.00000000E+00
  0.00000000E+00  0.00000000E+00  0.00000000E+00
  0.00000000E+00  0.00000000E+00  0.00000000E+00
  0.00000000E+00  0.00000000E+00  0.00000000E+00
  0.00000000E+00  0.00000000E+00  0.00000000E+00
  0.00000000E+00  0.00000000E+00  0.00000000E+00
  0.00000000E+00  0.00000000E+00  0.00000000E+00
  0.00000000E+00  0.00000000E+00  0.00000000E+00
  0.00000000E+00  0.00000000E+00  0.00000000E+00
  0.00000000E+00  0.00000000E+00  0.00000000E+00
  0.00000000E+00  0.00000000E+00  0.00000000E+00
  0.00000000E+00  0.00000000E+00  0.00000000E+00
  0.00000000E+00  0.00000000E+00  0.00000000E+00
  0.00000000E+00  0.00000000E+00  0.00000000E+00
