au_111_4_layers_5x5_with_h2o_6_bilayers_
   1.00000000000000     
    14.6976995467999991    0.0000000000000000    0.0000000000000000
    -7.3488497733999996   12.7285811846999994    0.0000000000000000
     0.0000000000000000    0.0000000000000000   49.2004013061999999
   Au
   100
Selective dynamics
Direct
  0.0000000000000000  0.0000000000000000  0.0000000000000000   F   F   F
  0.2667424073417558  0.1333692884600005  0.0473554447042129   T   T   T
  0.1334237217055647  0.2668390728854502  0.0942421211191340   T   T   T
  0.9999837909227952  0.9999866361089567  0.1414858978615174   T   T   T
  0.9999999999764526  0.2000000029901230  0.0000000000000000   F   F   F
  0.2667404362070865  0.3334388948591145  0.0473855667750203   T   T   T
  0.1334178848350833  0.0667082578241762  0.0941772702011530   T   T   T
  0.9999874075956008  0.1999237398153945  0.1415641278794092   T   T   T
  0.2000000030136633  0.2000000029901230  0.0000000000000000   F   F   F
  0.0666988750290647  0.3334338082413321  0.0473867830058585   T   T   T
  0.3334473930921201  0.0666104330718143  0.0942339709277466   T   T   T
  0.1999318764472934  0.1999267772709049  0.1415658468629652   T   T   T
  0.2000000029691691  0.0000000000000000  0.0000000000000000   F   F   F
  0.0667369003547268  0.1334630882669877  0.0473388189172280   T   T   T
  0.3334451136021593  0.2668277574013971  0.0942331433219003   T   T   T
  0.1999339340454865  0.0000051307953125  0.1415653513791707   T   T   T
  0.4000000059383453  0.0000000000000000  0.0000000000000000   F   F   F
  0.6666349958608482  0.1333933870438507  0.0473294378129506   T   T   T
  0.5333352463995262  0.2666705288050253  0.0942467508900009   T   T   T
  0.3999610359857480  0.9999765229334505  0.1416622073504802   T   T   T
  0.4000000059828395  0.2000000029901230  0.0000000000000000   F   F   F
  0.6666628591240895  0.3333356700158886  0.0474026305296994   T   T   T
  0.5333086672363941  0.0666334924157617  0.0942531660345740   T   T   T
  0.3999646676430834  0.1999826714477874  0.1416107261975025   T   T   T
  0.6000000238523029  0.2000000029901230  0.0000000000000000   F   F   F
  0.4667608702100746  0.3333667423438201  0.0473289678150000   T   T   T
  0.7331622441937931  0.0666148952152650  0.0942341078740210   T   T   T
  0.5999944896591188  0.2000051402756327  0.1416535097395110   T   T   T
  0.6000000238758432  0.0000000000000000  0.0000000000000000   F   F   F
  0.4667604982516618  0.1333928187421892  0.0473295446841619   T   T   T
  0.7333242613406953  0.2666736778479363  0.0942465274116687   T   T   T
  0.6000146900162285  0.9999943231504552  0.1416584148606626   T   T   T
  0.8000000119447250  0.0000000000000000  0.0000000000000000   F   F   F
  0.9333820776763643  0.2668322826059362  0.0942340351932506   T   T   T
  0.8000668251238614  0.0000103567666692  0.1415651680187728   T   T   T
  0.7999999523200216  0.2000000029901230  0.0000000000000000   F   F   F
  0.9332909875352667  0.0667075898402599  0.0941748479281519   T   T   T
  0.8000083678199247  0.1999925541055778  0.1416103001784333   T   T   T
  0.8666011274410408  0.3333629763149777  0.0473287790862848   T   T   T
  0.8666332919054790  0.1333721795389463  0.0473548917537519   T   T   T
  0.0000000000209468  0.4000000059802389  0.0000000000000000   F   F   F
  0.2666697236259807  0.5333369307331252  0.0473874758228545   T   T   T
  0.1334940196819997  0.6666281999972267  0.0943160617049793   T   T   T
  0.0000088200867494  0.3999783155326038  0.1416576620974948   T   T   T
  0.0000000000055138  0.6000000238188363  0.0000000000000000   F   F   F
  0.2666647414582183  0.7333369992767298  0.0473874616521245   T   T   T
  0.1334925986310580  0.4668764228258965  0.0943156434962546   T   T   T
  0.0000184196655854  0.6000284567109440  0.1416582713850170   T   T   T
  0.2000000178749772  0.6000000238188363  0.0000000000000000   F   F   F
  0.0666980778498886  0.7332657564546958  0.0473861775080247   T   T   T
  0.3333823050517132  0.4668748970483777  0.0943144921628555   T   T   T
  0.2000451566241190  0.6000225235859818  0.1417808674191824   T   T   T
  0.2000000029901230  0.4000000059802389  0.0000000000000000   F   F   F
  0.0667496772032289  0.5333761021083591  0.0473817496120407   T   T   T
  0.3333307715327347  0.6666649482519634  0.0943621557467474   T   T   T
  0.1999642131653863  0.3999472282325152  0.1416954176491174   T   T   T
  0.4000000059592921  0.4000000059802389  0.0000000000000000   F   F   F
  0.6666316243456706  0.5332419858263870  0.0473291093483756   T   T   T
  0.5331365002906520  0.6666378382646657  0.0943159499379846   T   T   T
  0.3999601680183725  0.3999795313195661  0.1416582886818357   T   T   T
  0.4000000357444407  0.6000000238188363  0.0000000000000000   F   F   F
  0.6665741421688204  0.7332705989450192  0.0473866794804958   T   T   T
  0.5333114411547515  0.4666819759107164  0.0942534325568005   T   T   T
  0.3999845306092497  0.6000203567529806  0.1417791099410005   T   T   T
  0.6000000238133225  0.6000000238188363  0.0000000000000000   F   F   F
  0.4666768947104556  0.7333409044371566  0.0473876761301220   T   T   T
  0.7333254888902057  0.4666660065050829  0.0942469286332439   T   T   T
  0.6000037145177773  0.6000322756600307  0.1416567283117766   T   T   T
  0.6000000238287555  0.4000000059802389  0.0000000000000000   F   F   F
  0.4666321742900119  0.5333833542054146  0.0473830293522932   T   T   T
  0.7331694416174880  0.6665531881894723  0.0942342778903282   T   T   T
  0.6000006957364856  0.3999931777602961  0.1416547764689812   T   T   T
  0.8000000118976374  0.4000000059802389  0.0000000000000000   F   F   F
  0.9333844440327116  0.6665557019567652  0.0942348760688439   T   T   T
  0.7999888403811556  0.3999989850443564  0.1416516534700661   T   T   T
  0.8000000118822044  0.6000000238188363  0.0000000000000000   F   F   F
  0.9333641953358927  0.4666858616914425  0.0942513595475859   T   T   T
  0.8000103226500029  0.6000269521548445  0.1416101893350721   T   T   T
  0.8666291621918616  0.7332597912763007  0.0473556317572976   T   T   T
  0.8665992603326081  0.5332418892883820  0.0473289486155510   T   T   T
  0.0000000000419007  0.8000000119604849  0.0000000000000000   F   F   F
  0.2667384516378365  0.9333012625740595  0.0473860565711844   T   T   T
  0.9999934019029175  0.8000651312494749  0.1415657897333150   T   T   T
  0.1334188458839893  0.8665817515528893  0.0942418294447010   T   T   T
  0.3333808845958445  0.8665035756604360  0.0943177718964848   T   T   T
  0.2000000030110698  0.8000000119604849  0.0000000000000000   F   F   F
  0.0667325598091483  0.9332746128710070  0.0473386328601981   T   T   T
  0.1999613720256889  0.8000269570606001  0.1416996029533443   T   T   T
  0.4000000059802389  0.8000000119604849  0.0000000000000000   F   F   F
  0.6665746684984375  0.9333077993900252  0.0473861455418947   T   T   T
  0.3999798235549873  0.7999621930181010  0.1417833380270101   T   T   T
  0.5331249293456762  0.8665110949060734  0.0943159865073520   T   T   T
  0.7331656907958107  0.8665862543670683  0.0942418865931353   T   T   T
  0.6000000238497023  0.8000000119604849  0.0000000000000000   F   F   F
  0.4666266612590906  0.9332495994192037  0.0473834074861760   T   T   T
  0.6000614292378742  0.8000474245331035  0.1416984306316708   T   T   T
  0.8000000119185842  0.8000000119604849  0.0000000000000000   F   F   F
  0.8000653243614431  0.8000575788099238  0.1415658771233609   T   T   T
  0.9332870018800119  0.8665795321284390  0.0941758847043104   T   T   T
  0.8665557513610814  0.9332785936255138  0.0473377864696053   T   T   T
 
  0.00000000E+00  0.00000000E+00  0.00000000E+00
  0.00000000E+00  0.00000000E+00  0.00000000E+00
  0.00000000E+00  0.00000000E+00  0.00000000E+00
  0.00000000E+00  0.00000000E+00  0.00000000E+00
  0.00000000E+00  0.00000000E+00  0.00000000E+00
  0.00000000E+00  0.00000000E+00  0.00000000E+00
  0.00000000E+00  0.00000000E+00  0.00000000E+00
  0.00000000E+00  0.00000000E+00  0.00000000E+00
  0.00000000E+00  0.00000000E+00  0.00000000E+00
  0.00000000E+00  0.00000000E+00  0.00000000E+00
  0.00000000E+00  0.00000000E+00  0.00000000E+00
  0.00000000E+00  0.00000000E+00  0.00000000E+00
  0.00000000E+00  0.00000000E+00  0.00000000E+00
  0.00000000E+00  0.00000000E+00  0.00000000E+00
  0.00000000E+00  0.00000000E+00  0.00000000E+00
  0.00000000E+00  0.00000000E+00  0.00000000E+00
  0.00000000E+00  0.00000000E+00  0.00000000E+00
  0.00000000E+00  0.00000000E+00  0.00000000E+00
  0.00000000E+00  0.00000000E+00  0.00000000E+00
  0.00000000E+00  0.00000000E+00  0.00000000E+00
  0.00000000E+00  0.00000000E+00  0.00000000E+00
  0.00000000E+00  0.00000000E+00  0.00000000E+00
  0.00000000E+00  0.00000000E+00  0.00000000E+00
  0.00000000E+00  0.00000000E+00  0.00000000E+00
  0.00000000E+00  0.00000000E+00  0.00000000E+00
  0.00000000E+00  0.00000000E+00  0.00000000E+00
  0.00000000E+00  0.00000000E+00  0.00000000E+00
  0.00000000E+00  0.00000000E+00  0.00000000E+00
  0.00000000E+00  0.00000000E+00  0.00000000E+00
  0.00000000E+00  0.00000000E+00  0.00000000E+00
  0.00000000E+00  0.00000000E+00  0.00000000E+00
  0.00000000E+00  0.00000000E+00  0.00000000E+00
  0.00000000E+00  0.00000000E+00  0.00000000E+00
  0.00000000E+00  0.00000000E+00  0.00000000E+00
  0.00000000E+00  0.00000000E+00  0.00000000E+00
  0.00000000E+00  0.00000000E+00  0.00000000E+00
  0.00000000E+00  0.00000000E+00  0.00000000E+00
  0.00000000E+00  0.00000000E+00  0.00000000E+00
  0.00000000E+00  0.00000000E+00  0.00000000E+00
  0.00000000E+00  0.00000000E+00  0.00000000E+00
  0.00000000E+00  0.00000000E+00  0.00000000E+00
  0.00000000E+00  0.00000000E+00  0.00000000E+00
  0.00000000E+00  0.00000000E+00  0.00000000E+00
  0.00000000E+00  0.00000000E+00  0.00000000E+00
  0.00000000E+00  0.00000000E+00  0.00000000E+00
  0.00000000E+00  0.00000000E+00  0.00000000E+00
  0.00000000E+00  0.00000000E+00  0.00000000E+00
  0.00000000E+00  0.00000000E+00  0.00000000E+00
  0.00000000E+00  0.00000000E+00  0.00000000E+00
  0.00000000E+00  0.00000000E+00  0.00000000E+00
  0.00000000E+00  0.00000000E+00  0.00000000E+00
  0.00000000E+00  0.00000000E+00  0.00000000E+00
  0.00000000E+00  0.00000000E+00  0.00000000E+00
  0.00000000E+00  0.00000000E+00  0.00000000E+00
  0.00000000E+00  0.00000000E+00  0.00000000E+00
  0.00000000E+00  0.00000000E+00  0.00000000E+00
  0.00000000E+00  0.00000000E+00  0.00000000E+00
  0.00000000E+00  0.00000000E+00  0.00000000E+00
  0.00000000E+00  0.00000000E+00  0.00000000E+00
  0.00000000E+00  0.00000000E+00  0.00000000E+00
  0.00000000E+00  0.00000000E+00  0.00000000E+00
  0.00000000E+00  0.00000000E+00  0.00000000E+00
  0.00000000E+00  0.00000000E+00  0.00000000E+00
  0.00000000E+00  0.00000000E+00  0.00000000E+00
  0.00000000E+00  0.00000000E+00  0.00000000E+00
  0.00000000E+00  0.00000000E+00  0.00000000E+00
  0.00000000E+00  0.00000000E+00  0.00000000E+00
  0.00000000E+00  0.00000000E+00  0.00000000E+00
  0.00000000E+00  0.00000000E+00  0.00000000E+00
  0.00000000E+00  0.00000000E+00  0.00000000E+00
  0.00000000E+00  0.00000000E+00  0.00000000E+00
  0.00000000E+00  0.00000000E+00  0.00000000E+00
  0.00000000E+00  0.00000000E+00  0.00000000E+00
  0.00000000E+00  0.00000000E+00  0.00000000E+00
  0.00000000E+00  0.00000000E+00  0.00000000E+00
  0.00000000E+00  0.00000000E+00  0.00000000E+00
  0.00000000E+00  0.00000000E+00  0.00000000E+00
  0.00000000E+00  0.00000000E+00  0.00000000E+00
  0.00000000E+00  0.00000000E+00  0.00000000E+00
  0.00000000E+00  0.00000000E+00  0.00000000E+00
  0.00000000E+00  0.00000000E+00  0.00000000E+00
  0.00000000E+00  0.00000000E+00  0.00000000E+00
  0.00000000E+00  0.00000000E+00  0.00000000E+00
  0.00000000E+00  0.00000000E+00  0.00000000E+00
  0.00000000E+00  0.00000000E+00  0.00000000E+00
  0.00000000E+00  0.00000000E+00  0.00000000E+00
  0.00000000E+00  0.00000000E+00  0.00000000E+00
  0.00000000E+00  0.00000000E+00  0.00000000E+00
  0.00000000E+00  0.00000000E+00  0.00000000E+00
  0.00000000E+00  0.00000000E+00  0.00000000E+00
  0.00000000E+00  0.00000000E+00  0.00000000E+00
  0.00000000E+00  0.00000000E+00  0.00000000E+00
  0.00000000E+00  0.00000000E+00  0.00000000E+00
  0.00000000E+00  0.00000000E+00  0.00000000E+00
  0.00000000E+00  0.00000000E+00  0.00000000E+00
  0.00000000E+00  0.00000000E+00  0.00000000E+00
  0.00000000E+00  0.00000000E+00  0.00000000E+00
  0.00000000E+00  0.00000000E+00  0.00000000E+00
  0.00000000E+00  0.00000000E+00  0.00000000E+00
  0.00000000E+00  0.00000000E+00  0.00000000E+00
