au_111_4_layers_5x5_with_h2o_6_bilayers_
   1.00000000000000     
    14.6976995467999991    0.0000000000000000    0.0000000000000000
    -7.3488497733999996   12.7285811846999994    0.0000000000000000
     0.0000000000000000    0.0000000000000000   49.2004013061999999
   Au   H    O 
   100   192    96
Selective dynamics
Direct
  0.0000000000000000  0.0000000000000000  0.0000000000000000   F   F   F
  0.2664929496291236  0.1334028218888006  0.0474740464164436   T   T   T
  0.1336555963368069  0.2665058354667777  0.0943173328528486   T   T   T
 -0.0000382186792693 -0.0000193024221718  0.1428077149810213   T   T   T
  0.9999999999764526  0.2000000029901230  0.0000000000000000   F   F   F
  0.2670773437196030  0.3335163371560062  0.0474073816010134   T   T   T
  0.1327322478476000  0.0665495538463929  0.0944228359392265   T   T   T
  0.0003406327613580  0.2001072526970998  0.1417858457531876   T   T   T
  0.2000000030136633  0.2000000029901230  0.0000000000000000   F   F   F
  0.0668140387322171  0.3333982488838956  0.0475087942416605   T   T   T
  0.3332221776395525  0.0669700852496145  0.0942755186474963   T   T   T
  0.1992853500107528  0.1990433049423040  0.1425078576996336   T   T   T
  0.2000000029691691  0.0000000000000000  0.0000000000000000   F   F   F
  0.0665165372790936  0.1334522560757406  0.0474220251260467   T   T   T
  0.3328002009889312  0.2667146578356708  0.0944832602245429   T   T   T
  0.1998609266286905  0.9997605781018717  0.1417964996977027   T   T   T
  0.4000000059383453  0.0000000000000000  0.0000000000000000   F   F   F
  0.6665585917581773  0.1332511443124446  0.0475265931084511   T   T   T
  0.5327361255506250  0.2663690006848395  0.0944202525402605   T   T   T
  0.3988631801690740  0.0000809056917968  0.1422394138330227   T   T   T
  0.4000000059828395  0.2000000029901230  0.0000000000000000   F   F   F
  0.6666146017670513  0.3332839599455726  0.0476333408488241   T   T   T
  0.5323878446614005  0.0666717061830476  0.0942806137804698   T   T   T
  0.3989981574889807  0.2004000796904108  0.1422698120728716   T   T   T
  0.6000000238523029  0.2000000029901230  0.0000000000000000   F   F   F
  0.4666625499516767  0.3333880756086631  0.0475279706615539   T   T   T
  0.7332543228578801  0.0660960346878605  0.0944870337973364   T   T   T
  0.6006473889056336  0.2003139456648973  0.1419439526298923   T   T   T
  0.6000000238758432  0.0000000000000000  0.0000000000000000   F   F   F
  0.4667699269155711  0.1336534275667902  0.0473117007534022   T   T   T
  0.7336052929025136  0.2663258452136180  0.0944165380033228   T   T   T
  0.5984381184728675  0.0000700620100036  0.1417216592268746   T   T   T
  0.8000000119447250  0.0000000000000000  0.0000000000000000   F   F   F
  0.9330338801529210  0.2662495652163498  0.0942668203223888   T   T   T
  0.8009377555507989  0.0002609790006480  0.1425294198285527   T   T   T
  0.7999999523200216  0.2000000029901230  0.0000000000000000   F   F   F
  0.9333611520456492  0.0661696680744565  0.0944215478687367   T   T   T
  0.7997574745803935  0.1987037259992124  0.1422588217331567   T   T   T
  0.8662812118989555  0.3330922945825820  0.0473062600899948   T   T   T
  0.8665434297777109  0.1330941186046535  0.0474722639822668   T   T   T
  0.0000000000209468  0.4000000059802389  0.0000000000000000   F   F   F
  0.2664239280919534  0.5332146684334351  0.0474288458244930   T   T   T
  0.1336109232537168  0.6667161892925980  0.0942622977756675   T   T   T
 -0.0000098178565284  0.3988010354271321  0.1422299903595559   T   T   T
  0.0000000000055138  0.6000000238188363  0.0000000000000000   F   F   F
  0.2667996055048513  0.7335797135096149  0.0474252479219897   T   T   T
  0.1334946250916612  0.4663428745887376  0.0946045177499095   T   T   T
 -0.0000174595705739  0.5983084584524555  0.1417010861857554   T   T   T
  0.2000000178749772  0.6000000238188363  0.0000000000000000   F   F   F
  0.0664247800360631  0.7328812996252428  0.0474105397690444   T   T   T
  0.3333058073347826  0.4669018919003859  0.0942677754191931   T   T   T
  0.2004383886132184  0.6007525318397353  0.1420024334892290   T   T   T
  0.2000000029901230  0.4000000059802389  0.0000000000000000   F   F   F
  0.0667466395556835  0.5330119404086425  0.0474766612176416   T   T   T
  0.3333993168573239  0.6667406057227224  0.0942761726704059   T   T   T
  0.2007407877210995  0.3989446266052488  0.1422879417800860   T   T   T
  0.4000000059592921  0.4000000059802389  0.0000000000000000   F   F   F
  0.6668904652499114  0.5331796619096949  0.0473084667215692   T   T   T
  0.5336803213803938  0.6671478405704238  0.0946064248137388   T   T   T
  0.4016939193179161  0.4016526698941015  0.1417032191491638   T   T   T
  0.4000000357444407  0.6000000238188363  0.0000000000000000   F   F   F
  0.6666367221142963  0.7334318524917093  0.0475177208787465   T   T   T
  0.5342884778650653  0.4675823890360573  0.0942731375643820   T   T   T
  0.3993639429534415  0.5997554426448442  0.1420119348309061   T   T   T
  0.6000000238133225  0.6000000238188363  0.0000000000000000   F   F   F
  0.4667934014487752  0.7332158774562447  0.0474272128497155   T   T   T
  0.7336394624581598  0.4672249911782156  0.0944089771379219   T   T   T
  0.6012164082772722  0.6011481638986164  0.1422401911707982   T   T   T
  0.6000000238287555  0.4000000059802389  0.0000000000000000   F   F   F
  0.4669859514447027  0.5337289217728713  0.0474774416834483   T   T   T
  0.7337279239179177  0.6667294863147020  0.0942826909212899   T   T   T
  0.5997038034116809  0.3993713046028962  0.1419444220751811   T   T   T
  0.8000000118976374  0.4000000059802389  0.0000000000000000   F   F   F
  0.9339426860587003  0.6671123332168136  0.0944914944123032   T   T   T
  0.7997153663775270  0.4003365674390636  0.1419432515759729   T   T   T
  0.8000000118822044  0.6000000238188363  0.0000000000000000   F   F   F
  0.9333216783770626  0.4656514282181591  0.0942743191337809   T   T   T
  0.8013629868824560  0.6010079204913177  0.1422621264957101   T   T   T
  0.8669035311413509  0.7334329392700788  0.0474788310856150   T   T   T
  0.8667166523206786  0.5332912356141125  0.0475225469958752   T   T   T
  0.0000000000419007  0.8000000119604849  0.0000000000000000   F   F   F
  0.2665381773377434  0.9331449425311603  0.0475196488747896   T   T   T
  0.9997581821087752  0.8007231177119633  0.1425264651204903   T   T   T
  0.1328321852129649  0.8663339739229968  0.0943296405411992   T   T   T
  0.3328592073779653  0.8665377029856492  0.0946081868491150   T   T   T
  0.2000000030110698  0.8000000119604849  0.0000000000000000   F   F   F
  0.0668962729704335  0.9334174991410079  0.0474295162663280   T   T   T
  0.1981689920575489  0.7993206852051292  0.1422945740256046   T   T   T
  0.4000000059802389  0.8000000119604849  0.0000000000000000   F   F   F
  0.6664636132084271  0.9335536708850588  0.0474049552607172   T   T   T
  0.4003531443849644  0.7997216905563299  0.1420107382446637   T   T   T
  0.5332238545412024  0.8664482005141383  0.0942736375130702   T   T   T
  0.7335193409597223  0.8671382059633771  0.0943228901912558   T   T   T
  0.6000000238497023  0.8000000119604849  0.0000000000000000   F   F   F
  0.4662692359170721  0.9332379759377036  0.0474842613548703   T   T   T
  0.6011237983896809  0.8018123212491826  0.1422990452325367   T   T   T
  0.8000000119185842  0.8000000119604849  0.0000000000000000   F   F   F
  0.7998908973173864  0.8001821529902224  0.1418123976618817   T   T   T
  0.9337370813916898  0.8671082648147973  0.0944291492664044   T   T   T
  0.8665424522286426  0.9330574075980737  0.0474198492609435   T   T   T
  0.1672679232197533  0.0632883025643362  0.2955994531538571   T   T   T
  0.1671410813297321  0.0633580457613983  0.4481406975415549   T   T   T
  0.3971285985733509  0.3339714493230084  0.2946409767474486   T   T   T
  0.3970593724612891  0.3336236149883156  0.4473749512526392   T   T   T
  0.1041174773146342  0.1673034616534727  0.2197760545162955   T   T   T
  0.1038534455321082  0.1670144501049683  0.3716599346480782   T   T   T
  0.0632931613683180  0.3944522275752537  0.2184030614376791   T   T   T
  0.0631480666766213  0.3963765057278780  0.3708603024568151   T   T   T
  0.1672991290866392  0.1041354382764853  0.2197712054309212   T   T   T
  0.1670356746789030  0.1038384278477807  0.3716567047289160   T   T   T
  0.3943873710048956  0.0632340268264960  0.2183993142448495   T   T   T
  0.3964226949266624  0.0631297930976037  0.3708495978959511   T   T   T
  0.0633081276868424  0.1672587678557891  0.2956024304255979   T   T   T
  0.0633712759627293  0.1671324077329470  0.4481420870944119   T   T   T
  0.3339972582567068  0.3971239793252163  0.2946475344625419   T   T   T
  0.3336688777154651  0.3970142240750084  0.4473853007485448   T   T   T
  0.1678157054512788  0.9995989271949844  0.1876699902168109   T   T   T
  0.1706240232207376  0.9999010988005413  0.3387277391830821   T   T   T
  0.2338272155595439  0.9998168243334887  0.2141656489486945   T   T   T
  0.2336006728044418  0.9999253796688830  0.3659499208881185   T   T   T
  0.3238760844111093  0.3242132178870467  0.1864489101129615   T   T   T
  0.3287512176505156  0.3287544194694781  0.3381508098220891   T   T   T
  0.2635631536311794  0.2636287312791410  0.2140287952974379   T   T   T
  0.2661914389433284  0.2661888146060454  0.3656396942843680   T   T   T
  0.9996678257920431  0.1679126384320102  0.1876677874346229   T   T   T
  0.9999233899224521  0.1706190364991372  0.3387342169168261   T   T   T
  0.9998399638473965  0.2338871330431805  0.2141659600236258   T   T   T
  0.9999232548147562  0.2335755562198876  0.3659582897917692   T   T   T
  0.3283828173261620  0.0001104182130122  0.2620287194600809   T   T   T
  0.3290549247328827  0.0000098091096243  0.4142640296091235   T   T   T
  0.2662439577507397  0.0000823467887652  0.2895632601110182   T   T   T
  0.2662417361884987  0.9999618449736989  0.4419506630081647   T   T   T
  0.1708107911551254  0.1708021814206468  0.2629219383022640   T   T   T
  0.1706050594578084  0.1705911156455252  0.4149282022201389   T   T   T
  0.2341317895655740  0.2341164217799872  0.2900549202008075   T   T   T
  0.2339296828754959  0.2339014500521910  0.4423640341857398   T   T   T
  0.0001524317563731  0.3284144461008160  0.2620409522729564   T   T   T
 -0.0000161906686889  0.3290170785671673  0.4142684468272015   T   T   T
  0.0001028587482552  0.2662474681684897  0.2895717810106873   T   T   T
  0.9999497586023471  0.2662147670932847  0.4419557461685253   T   T   T
  0.6662072888313013  0.0632599243411550  0.2946460847272528   T   T   T
  0.6663025264833801  0.0632954288942043  0.4473888939057530   T   T   T
  0.8960514077871111  0.3327203716114795  0.2945237252796206   T   T   T
  0.8963689949693193  0.3330381450423234  0.4471909280787132   T   T   T
  0.4368054121501516  0.1042489455538585  0.2945099186636319   T   T   T
  0.4366314755851877  0.1036096757302602  0.4471999629937340   T   T   T
  0.6029174209327484  0.1666399587168428  0.2176510377797444   T   T   T
  0.6034637816915558  0.1669164612994214  0.3705477612781766   T   T   T
  0.5635208119359620  0.3969751325997712  0.2176285972866188   T   T   T
  0.5633824589246413  0.3963840883315092  0.3705423073577915   T   T   T
  0.4368667919997695  0.3332210539120850  0.2178148768186953   T   T   T
  0.4368618013878985  0.3330761445499607  0.3707364878307180   T   T   T
  0.6666114010547067  0.1037094381460742  0.2178286399722918   T   T   T
  0.6667643286149805  0.1036963835768609  0.3707344241191589   T   T   T
  0.8952977210465648  0.0630089074247685  0.2197763190069374   T   T   T
  0.8959697778556127  0.0630858189778929  0.3716517124874851   T   T   T
  0.5632272744648192  0.1674146079604475  0.2942930148701439   T   T   T
  0.5635806655590391  0.1669971524268591  0.4470175488214792   T   T   T
  0.8328780243929753  0.3959669286899624  0.2942895962745988   T   T   T
  0.8329520120542051  0.3965806121416207  0.4469986449967314   T   T   T
  0.6754408016865989  0.9997002009721169  0.1864645235911681   T   T   T
  0.6711899866944921  0.9999950152477745  0.3381605807645430   T   T   T
  0.7359951164338969  0.9998765948813282  0.2140510650986682   T   T   T
  0.7336724538878996  0.9999261997830099  0.3656557641928976   T   T   T
  0.8299864487559113  0.3258514513922594  0.1858895318016084   T   T   T
  0.8289636708237731  0.3288156017373686  0.3376729869341357   T   T   T
  0.7642358517965324  0.2636453047305141  0.2127096840397481   T   T   T
  0.7662685321594414  0.2662416645513594  0.3650295220693031   T   T   T
  0.4958245771698251  0.1700426998341823  0.1858876737156671   T   T   T
  0.4998640285834409  0.1710609340936925  0.3376680273314481   T   T   T
  0.4992974968122291  0.2357481268543301  0.2127117244994383   T   T   T
  0.4999276230639913  0.2336526794736258  0.3650371498038675   T   T   T
  0.8290920091310529  0.9999633272645969  0.2629234669854529   T   T   T
  0.8292767837824944 -0.0000538756670793  0.4149157927398295   T   T   T
  0.7659573947832338  0.0000442272644318  0.2900768705614675   T   T   T
  0.7659684171121779 -0.0000755745676338  0.4423621772250595   T   T   T
  0.6702242634631320  0.1705377792317349  0.2613242927297743   T   T   T
  0.6703837206636503  0.1703659236794544  0.4138089958227766   T   T   T
  0.7334421911951939  0.2335279903515088  0.2886261545671051   T   T   T
  0.7335699292751117  0.2335854757382466  0.4413408512738257   T   T   T
  0.5002738852075597  0.3298709922467728  0.2613197647986045   T   T   T
  0.4999775393137848  0.3294887249163034  0.4138074489346936   T   T   T
  0.5001644362204682  0.2667459014887243  0.2886303960389759   T   T   T
  0.5000150837829304  0.2663150813240037  0.4413505870410853   T   T   T
  0.1674457744056604  0.5632212869866413  0.2943264300234414   T   T   T
  0.1670031371174013  0.5635459080201642  0.4470224499994998   T   T   T
  0.3959773518201157  0.8328936430788580  0.2943220987838730   T   T   T
  0.3965640077489971  0.8329492104314813  0.4470119354262436   T   T   T
  0.3332497957496433  0.4369196165584346  0.2178753513852390   T   T   T
  0.3331315580263075  0.4368729657884662  0.3707491688931227   T   T   T
  0.1036832137243151  0.6665952805332325  0.2178871313612747   T   T   T
  0.1036862271150510  0.6666733684122743  0.3707450298862482   T   T   T
  0.0629598385549905  0.8953185034972588  0.2197856389854565   T   T   T
  0.0631117401708940  0.8959627095937035  0.3716531471613861   T   T   T
  0.1666126765865119  0.6028917118307950  0.2177114068397430   T   T   T
  0.1669067180711691  0.6033687976075051  0.3705646868187325   T   T   T
  0.3970038442126507  0.5635942375341244  0.2176927375274325   T   T   T
  0.3964359674204692  0.5633945508314318  0.3705590783116693   T   T   T
  0.0632248182349327  0.6661761804851317  0.2946657433108118   T   T   T
  0.0632623146187155  0.6662723987613323  0.4474010307519770   T   T   T
  0.3327157648694534  0.8960572435557210  0.2945310112933626   T   T   T
  0.3330309180180867  0.8963713982533386  0.4471928522226128   T   T   T
  0.1042826308649933  0.4367939760524204  0.2945251207795883   T   T   T
  0.1036049300675174  0.4365897525647178  0.4471921604124921   T   T   T
  0.1703963482889188  0.4961420245899360  0.1859173912157405   T   T   T
  0.1710935086028897  0.4997950225321983  0.3376819753808969   T   T   T
  0.2358355707174096  0.4993783181322965  0.2127685272961489   T   T   T
  0.2336933256847158  0.4998852559015828  0.3650545361617753   T   T   T
  0.3257827029732629  0.8296409671195201  0.1859277121890608   T   T   T
  0.3287558550986344  0.8289276010244644  0.3376877405593214   T   T   T
  0.2635698226795882  0.7641502978030509  0.2127728786704626   T   T   T
  0.2661928628206519  0.7661913678595503  0.3650450385717570   T   T   T
  0.0003012051759887  0.6758125261093677  0.1864513998601351   T   T   T
 -0.0000209141322011  0.6711753473128556  0.3381600292263034   T   T   T
  0.9999509450369807  0.7360633976973380  0.2140446207260319   T   T   T
 -0.0000326294960326  0.7336762372311626  0.3656573077370360   T   T   T
  0.3299371994698978  0.5002936876877324  0.2613512458437211   T   T   T
  0.3295323366314429  0.4999408369168334  0.4138230073783613   T   T   T
  0.2667807745001600  0.5001542452651714  0.2886596676824681   T   T   T
  0.2663274217416484  0.4999593935998055  0.4413599646551725   T   T   T
  0.1704996751156458  0.6701808577494638  0.2613804070032431   T   T   T
  0.1703557605543018  0.6703520323096255  0.4138305389589970   T   T   T
  0.2335227033597547  0.7334422552385558  0.2886742776921696   T   T   T
  0.2335662542340577  0.7335568969054146  0.4413612734494597   T   T   T
 -0.0000569194016936  0.8290837891455490  0.2629201828846718   T   T   T
 -0.0000369384127405  0.8292699927433775  0.4149197091318071   T   T   T
  0.0000227792853246  0.7659397509884308  0.2900728375449541   T   T   T
  0.9999160904224870  0.7659513840755953  0.4423659690310231   T   T   T
  0.6674716746359145  0.5633137078338456  0.2945133460410935   T   T   T
  0.6669079873810604  0.5632570738447659  0.4472030355090890   T   T   T
  0.8960512748195514  0.8327579541068940  0.2955859636396380   T   T   T
  0.8962061952503800  0.8327709906125079  0.4481148207906787   T   T   T
  0.4369109890423753  0.6042160425036660  0.2942916705681000   T   T   T
  0.4363263129039286  0.6033297374947808  0.4470097385045400   T   T   T
  0.8333588190939862  0.4363314184881205  0.2176508692393144   T   T   T
  0.8329549214029663  0.4365098495654887  0.3705550010037758   T   T   T
  0.6052393027962296  0.6685926750356199  0.2183970201231649   T   T   T
  0.6034262325503930  0.6665856039420325  0.3708556487831274   T   T   T
  0.5629017653803206  0.8963351115056064  0.2178847054989074   T   T   T
  0.5629848746419999  0.8961527571351865  0.3707344604349870   T   T   T
  0.4362617509657543  0.8334137202484564  0.2177228862199020   T   T   T
  0.4364626544115048  0.8329258700695767  0.3705665553743636   T   T   T
  0.6684770157063639  0.6053049567983002  0.2183944629896823   T   T   T
  0.6665975835859774  0.6033904953253475  0.3708499668662697   T   T   T
  0.8962885719412840  0.5629539119222584  0.2178115711096066   T   T   T
  0.8961677738420852  0.5630280981506300  0.3707268149474737   T   T   T
  0.5633193669522650  0.6674792343171904  0.2945235958958712   T   T   T
  0.5632809127424130  0.6668982761605450  0.4471969312143723   T   T   T
  0.8327661004459868  0.8960403775233604  0.2955882218691484   T   T   T
  0.8327682232315293  0.8961920553809565  0.4481124340770707   T   T   T
  0.6042264887018592  0.4369088606629101  0.2942732226287803   T   T   T
  0.6033484269624383  0.4363013807531380  0.4470016640468948   T   T   T
  0.6741285659373489  0.5039934564580250  0.1858797400579041   T   T   T
  0.6711410551804187  0.5000520455741336  0.3376591201930031   T   T   T
  0.7363378227643123  0.5005466095069075  0.2127128060489950   T   T   T
  0.7336602110974834  0.4999447712021995  0.3650277722128208   T   T   T
  0.8317341463153103  0.8317921334313543  0.1877032223122952   T   T   T
  0.8292506025216989  0.8292257452162219  0.3387190394385042   T   T   T
  0.7657642403114171  0.7658138367169925  0.2141801338033794   T   T   T
  0.7662764588246604  0.7662461086530498  0.3659375148029188   T   T   T
  0.5036354888728244  0.6742439428148027  0.1859226817344381   T   T   T
  0.5000724966266559  0.6711461950018256  0.3376703855510199   T   T   T
  0.5004420675410424  0.7364335105751795  0.2127841083957326   T   T   T
  0.4999532525005854  0.7336604033891035  0.3650393473520214   T   T   T
  0.8296387965619966  0.4997825079001975  0.2613227855675665   T   T   T
  0.8294756321497986  0.4999816547851720  0.4138056562684975   T   T   T
  0.7666559573928120  0.4999523994034759  0.2886312292311274   T   T   T
  0.7662371297846837  0.4998935971782304  0.4413483819906633   T   T   T
  0.6715597487633275  0.6715922884714773  0.2620181382512274   T   T   T
  0.6708498690546650  0.6708052714898108  0.4142608952437581   T   T   T
  0.7337943635206569  0.7337923383785555  0.2895385030698286   T   T   T
  0.7336501859122633  0.7336254948370394  0.4419410531905862   T   T   T
  0.4997594448327127  0.8296900263085607  0.2613735310277561   T   T   T
  0.4999648718432777  0.8294874482704677  0.4138184366611333   T   T   T
  0.4999595724019110  0.7666709529598983  0.2886713368434224   T   T   T
  0.4999040160652284  0.7662511681185358  0.4413552907193231   T   T   T
  0.9367386476817425  0.1039704253935292  0.2955833109338659   T   T   T
  0.9365137444795543  0.1036879761671878  0.4481264764873913   T   T   T
  0.9368011971373817  0.3312618721854116  0.2184255103752676   T   T   T
  0.9367800226649625  0.3332267364074160  0.3708695221658135   T   T   T
  0.9369323284200021  0.6030169884535470  0.2946341815272028   T   T   T
  0.9364884551057501  0.6028823012482617  0.4473786013726286   T   T   T
  0.9365937833783312  0.8321266604587535  0.2198023043973164   T   T   T
  0.9367491358705360  0.8327661759874143  0.3716568606212745   T   T   T
  0.3311556149603056  0.9367363778051021  0.2184170834463911   T   T   T
  0.3332184029940374  0.9367559791119480  0.3708714184722351   T   T   T
  0.1039738145620914  0.9367176256973626  0.2955785655724559   T   T   T
  0.1037065232266175  0.9364983631405656  0.4481262700293202   T   T   T
  0.8321399787585136  0.9366413835720625  0.2198024744680430   T   T   T
  0.8327784679509527  0.9367207536594185  0.3716545489426858   T   T   T
  0.6030331840183011  0.9369710022308824  0.2946530783250310   T   T   T
  0.6029026174414536  0.9365218201534256  0.4473844092897440   T   T   T
  0.1668005863057287  0.9996703734115496  0.2077810417219196   T   T   T
  0.1680337110953091  0.9998788674688848  0.3588775770087457   T   T   T
  0.1691554035978804 -0.0000157832268309  0.3026369138439701   T   T   T
  0.1708977904835788  0.9999180701320005  0.4541340702032551   T   T   T
  0.3291229362220687  0.3292267448793171  0.2064294881602602   T   T   T
  0.3313859997860819  0.3313861644434569  0.3582919225258361   T   T   T
  0.3327720769720142  0.3327508707784066  0.3020513447654904   T   T   T
  0.3304906867205901  0.3304363852274492  0.4537210355210898   T   T   T
  0.9996706639560683  0.1668556400586780  0.2077787032387440   T   T   T
  0.9998900383415831  0.1680173028576696  0.3588838199053321   T   T   T
  0.0000086494229671  0.1691480759033878  0.3026421112850747   T   T   T
  0.9999261806944162  0.1708778274128107  0.4541367992945167   T   T   T
  0.3314605944662375  0.0001629678050161  0.2821636792544759   T   T   T
  0.3318067499762322  0.0000102402418707  0.4344225269683155   T   T   T
  0.3303366018447351 -0.0000088580237237  0.2259085769586523   T   T   T
  0.3319542858440555  0.9999681857673358  0.3782137578786374   T   T   T
  0.1684649779245361  0.1684499791929059  0.2830796124747545   T   T   T
  0.1680736744125670  0.1680637788306101  0.4350931058046337   T   T   T
  0.1691257720918619  0.1691386440600529  0.2269844745005355   T   T   T
  0.1689203006726258  0.1689009722649168  0.3787829082072594   T   T   T
  0.0001907801284728  0.3314716078924737  0.2821758493753559   T   T   T
 -0.0000057247943160  0.3317771526466471  0.4344269554460906   T   T   T
  0.0000477839656372  0.3304238910580206  0.2259170689646765   T   T   T
 -0.0000425454965521  0.3319228842382888  0.3782214007737171   T   T   T
  0.6704203313334052  0.9999096271077762  0.2064453039579565   T   T   T
  0.6684746642104038  0.9999165730110915  0.3583013294336783   T   T   T
  0.6673838785051743  0.0001175682548655  0.3020671563848128   T   T   T
  0.6694645848607818  0.9999009437739501  0.4537347656686355   T   T   T
  0.8314583642839048  0.3292590587845638  0.2059043382197545   T   T   T
  0.8317792577268556  0.3314882849704101  0.3578132964547240   T   T   T
  0.8308413180070703  0.3309481114984023  0.3014971862516409   T   T   T
  0.8291280349318272  0.3294404299591718  0.4530936665950081   T   T   T
  0.4977232454918171  0.1685420693313034  0.2059026337301686   T   T   T
  0.4996523855877809  0.1681474768116424  0.3578075975091470   T   T   T
  0.5002348130854140  0.1694333834635869  0.3015002460389100   T   T   T
  0.5002736785951551  0.1708251652609684  0.4531183491765575   T   T   T
  0.8315931640178827  0.0000239962577660  0.2830805216261387   T   T   T
  0.8318295650653074 -0.0000372763582740  0.4350807391688692   T   T   T
  0.8303137400508375  0.9998343208951816  0.2270037310904754   T   T   T
  0.8309239636564935  0.9999072940020529  0.3787867088295535   T   T   T
  0.6679586742840756  0.1681007200780677  0.2814609333455002   T   T   T
  0.6679084991901046  0.1677051407146969  0.4339717149304807   T   T   T
  0.6674486502487206  0.1682141097495413  0.2250073781367502   T   T   T
  0.6684285542719500  0.1687981195438193  0.3777485537224083   T   T   T
  0.5002003241306373  0.3322166165372712  0.2814555394366789   T   T   T
  0.4998248478263011  0.3319923908744097  0.4339696737146420   T   T   T
  0.5005666671043424  0.3324769992347530  0.2250014179574905   T   T   T
  0.5003074017961429  0.3314429774414486  0.3777566811276187   T   T   T
  0.1686654108203895  0.4978142905227976  0.2059303551412516   T   T   T
  0.1681740074873086  0.4995747504046567  0.3578219773316329   T   T   T
  0.1694683075252235  0.5002099333543806  0.3015197377597735   T   T   T
  0.1708238542492642  0.5002253476899713  0.4531137186656104   T   T   T
  0.3291529496810379  0.8313496278229081  0.2059415643038625   T   T   T
  0.3314223802497345  0.8317188079985347  0.3578286558841063   T   T   T
  0.3309444517040025  0.8308650222735736  0.3015186217627482   T   T   T
  0.3294286280507767  0.8291376627636314  0.4531046304553406   T   T   T
  0.0000663983377290  0.6705409457687258  0.2064314327828769   T   T   T
 -0.0000526758960105  0.6684756165759377  0.3583006463273200   T   T   T
  0.0000457315501189  0.6673448427311450  0.3020659357969008   T   T   T
  0.9998611117301595  0.6694351716748640  0.4537385136712527   T   T   T
  0.3322592815692709  0.5001932377581807  0.2814888805846666   T   T   T
  0.3320179474751108  0.4997801722818776  0.4339857734927626   T   T   T
  0.3325319567957277  0.5006248560686085  0.2250718178752769   T   T   T
  0.3315037703398259  0.5003132086385708  0.3777751731162060   T   T   T
  0.1680876468408536  0.6679387467080348  0.2815180721656078   T   T   T
  0.1676925419851319  0.6678851138965437  0.4339926669889068   T   T   T
  0.1681511092179616  0.6673892178524807  0.2250811045863098   T   T   T
  0.1687729130746394  0.6683266417154174  0.3777651286155526   T   T   T
  0.0000267793820758  0.8315885230438903  0.2830778672356107   T   T   T
 -0.0000264010943842  0.8318224485316250  0.4350847025231486   T   T   T
  0.9997956598039104  0.8303171298523012  0.2270069922405445   T   T   T
 -0.0000623949171335  0.8309187067588539  0.3787903485590962   T   T   T
  0.6706820242688258  0.5020550740816149  0.2058944401353918   T   T   T
  0.6683949232613100  0.5001531661378189  0.3577989736657319   T   T   T
  0.6692352655698364  0.4998757835294165  0.3014922168347395   T   T   T
  0.6704724310202935  0.4996026936999382  0.4531139175008728   T   T   T
  0.8327485983626746  0.8327735172733300  0.2078148533429295   T   T   T
  0.8318161052983507  0.8317914430535275  0.3588689104227670   T   T   T
  0.8308319381250723  0.8308215586768697  0.3026221371668503   T   T   T
  0.8289923786657323  0.8289850679751537  0.4541070934766349   T   T   T
  0.5019449084375297  0.6708035876377606  0.2059356515943954   T   T   T
  0.5001872156903074  0.6684103617445284  0.3578108682572405   T   T   T
  0.4998848577161479  0.6692331974702549  0.3015084032737620   T   T   T
  0.4996342028735876  0.6704678596528864  0.4531119323953563   T   T   T
  0.8321195309153069  0.4999707296031285  0.2814591147196304   T   T   T
  0.8321359442737339  0.5001446648271968  0.4339678576360042   T   T   T
  0.8318143084664971  0.4993037536876840  0.2250094282559107   T   T   T
  0.8310815972799714  0.4996000577893155  0.3777528880389537   T   T   T
  0.6685991136754130  0.6686040970627961  0.2821532892084060   T   T   T
  0.6681056515653421  0.6680753376456087  0.4344191304215579   T   T   T
  0.6692773318888671  0.6693584875950693  0.2258956375591591   T   T   T
  0.6679084129740743  0.6678766494696046  0.3782014882682613   T   T   T
  0.4999754650407733  0.8321494997774120  0.2815114701979173   T   T   T
  0.5001397425839752  0.8321461970087867  0.4339808675282257   T   T   T
  0.4992318745861853  0.8318884203631023  0.2250915177972858   T   T   T
  0.4995655329981966  0.8310746619329504  0.3777648848908640   T   T   T
