bilayer_4                               
   1.00000000000000     
    14.6976995467999991    0.0000000000000000    0.0000000000000000
    -7.3488497733999996   12.7285811846999994    0.0000000000000000
     0.0000000000000000    0.0000000000000000   49.2004013061999999
   H    O 
   192    96
Selective dynamics
Direct
  0.1690762788181601  0.0630359202928616  0.2904657721602604
  0.1690762788181601  0.0630359202928616  0.4542855741541132
  0.3939596414850897  0.3309237361083959  0.2904657721602604
  0.3939596414850897  0.3309237361083959  0.4542855741541132
  0.1059453562221933  0.1691214442335109  0.2088877558749687
  0.1059453562221933  0.1691214442335109  0.3727075578688286
  0.0631760880534102  0.3940546512779477  0.2088877558749687
  0.0631760880534102  0.3940546512779477  0.3727075578688286
  0.1691214292876353  0.1059453561580739  0.2088877558749687
  0.1691214292876353  0.1059453561580739  0.3727075578688286
  0.3940546214404748  0.0631760879968795  0.2088877558749687
  0.3940546214404748  0.0631760879968795  0.3727075578688286
  0.0630359276856964  0.1690762937181773  0.2904657721602604
  0.0630359276856964  0.1690762937181773  0.4542855741541132
  0.3309237360914494  0.3939596414742255  0.2904657721602604
  0.3309237360914494  0.3939596414742255  0.4542855741541132
  0.1764359026895903  0.0000000000000000  0.1760237216989680
  0.1764359026895903  0.0000000000000000  0.3398435236928208
  0.2386377006708926  0.0000000000000000  0.2036700397754103
  0.2386377006708926  0.0000000000000000  0.3674898417692702
  0.3235640824144213  0.3235640823778922  0.1760237216989680
  0.3235640824144213  0.3235640823778922  0.3398435236928208
  0.2613623142384185  0.2613623142066146  0.2036700397754103
  0.2613623142384185  0.2613623142066146  0.3674898417692702
  0.9999999999942517  0.1764359027461353  0.1760237216989680
  0.9999999999942517  0.1764359027461353  0.3398435236928208
  0.9999999999769926  0.2386377006929195  0.2036700397754103
  0.9999999999769926  0.2386377006929195  0.3674898417692702
  0.3230122923579302  0.0000000000000000  0.2574552893617081
  0.3230122923579302  0.0000000000000000  0.4212750913555681
  0.2612514495736846  0.0000000000000000  0.2852654158987775
  0.2612514495736846  0.0000000000000000  0.4490852178926374
  0.1769876777641457  0.1769876926823457  0.2574552893617081
  0.1769876777641457  0.1769876926823457  0.4212750913555681
  0.2387485504533728  0.2387485504396096  0.2852654158987775
  0.2387485504533728  0.2387485504396096  0.4490852178926374
  0.9999999999685727  0.3230122923631171  0.2574552893617081
  0.9999999999685727  0.3230122923631171  0.4212750913555681
  0.0000000000188862  0.2612514496114571  0.2852654158987775
  0.0000000000188862  0.2612514496114571  0.4490852178926374
  0.6690762638906520  0.0630359202928616  0.2904657721602604
  0.6690762638906520  0.0630359202928616  0.4542855741541132
  0.8939596414578759  0.3309237361083959  0.2904657721602604
  0.8939596414578759  0.3309237361083959  0.4542855741541132
  0.4369640946135576  0.1060403659617961  0.2904657721602604
  0.4369640946135576  0.1060403659617961  0.4542855741541132
  0.6059452891096555  0.1691214442335109  0.2088877558749687
  0.6059452891096555  0.1691214442335109  0.3727075578688286
  0.5631760359091942  0.3940546512779477  0.2088877558749687
  0.5631760359091942  0.3940546512779477  0.3727075578688286
  0.4368239343385056  0.3308785855930623  0.2088877558749687
  0.4368239343385056  0.3308785855930623  0.3727075578688286
  0.6691214442287503  0.1059453561580739  0.2088877558749687
  0.6691214442287503  0.1059453561580739  0.3727075578688286
  0.8940546512138425  0.0631760879968795  0.2088877558749687
  0.8940546512138425  0.0631760879968795  0.3727075578688286
  0.5630359053420619  0.1690762937181773  0.2904657721602604
  0.5630359053420619  0.1690762937181773  0.4542855741541132
  0.8309236765311070  0.3939596414742255  0.2904657721602604
  0.8309236765311070  0.3939596414742255  0.4542855741541132
  0.6764358878301167  0.0000000000000000  0.1760237216989680
  0.6764358878301167  0.0000000000000000  0.3398435236928208
  0.7386377454125892  0.0000000000000000  0.2036700397754103
  0.7386377454125892  0.0000000000000000  0.3674898417692702
  0.8235640525866259  0.3235640823778922  0.1760237216989680
  0.8235640525866259  0.3235640823778922  0.3398435236928208
  0.7613623142112047  0.2613623142066146  0.2036700397754103
  0.7613623142112047  0.2613623142066146  0.3674898417692702
  0.5000000000350795  0.1764359027461353  0.1760237216989680
  0.5000000000350795  0.1764359027461353  0.3398435236928208
  0.5000000000178204  0.2386377006929195  0.2036700397754103
  0.5000000000178204  0.2386377006929195  0.3674898417692702
  0.8230122923987579  0.0000000000000000  0.2574552893617081
  0.8230122923987579  0.0000000000000000  0.4212750913555681
  0.7612514496145053  0.0000000000000000  0.2852654158987775
  0.7612514496145053  0.0000000000000000  0.4490852178926374
  0.6769876480043848  0.1769876926823457  0.2574552893617081
  0.6769876480043848  0.1769876926823457  0.4212750913555681
  0.7387485504261591  0.2387485504396096  0.2852654158987775
  0.7387485504261591  0.2387485504396096  0.4490852178926374
  0.5000000000094005  0.3230122923631171  0.2574552893617081
  0.5000000000094005  0.3230122923631171  0.4212750913555681
  0.4999999999916724  0.2612514496114571  0.2852654158987775
  0.4999999999916724  0.2612514496114571  0.4490852178926374
  0.1690762937191437  0.5630359649679164  0.2904657721602604
  0.1690762937191437  0.5630359649679164  0.4542855741541132
  0.3939596712515083  0.8309237360809050  0.2904657721602604
  0.3939596712515083  0.8309237360809050  0.4542855741541132
  0.3308785558042189  0.4368239045121101  0.2088877558749687
  0.3308785558042189  0.4368239045121101  0.3727075578688286
  0.1059453710883247  0.6691214442060200  0.2088877558749687
  0.1059453710883247  0.6691214442060200  0.3727075578688286
  0.0631761029337454  0.8940547108800345  0.2088877558749687
  0.0631761029337454  0.8940547108800345  0.3727075578688286
  0.1691214591036641  0.6059453487456210  0.2088877558749687
  0.1691214591036641  0.6059453487456210  0.3727075578688286
  0.3940546811044783  0.5631760955114586  0.2088877558749687
  0.3940546811044783  0.5631760955114586  0.3727075578688286
  0.0630359351624463  0.6690763235447506  0.2904657721602604
  0.0630359351624463  0.6690763235447506  0.4542855741541132
  0.3309237360714974  0.8939597010763123  0.2904657721602604
  0.3309237360714974  0.8939597010763123  0.4542855741541132
  0.1060403510668948  0.4369640648311659  0.2904657721602604
  0.1060403510668948  0.4369640648311659  0.4542855741541132
  0.1764359027234690  0.4999999999725020  0.1760237216989680
  0.1764359027234690  0.4999999999725020  0.3398435236928208
  0.2386377006367368  0.4999999999725020  0.2036700397754103
  0.2386377006367368  0.4999999999725020  0.3674898417692702
  0.3235641122075847  0.8235641122044726  0.1760237216989680
  0.3235641122075847  0.8235641122044726  0.3398435236928208
  0.2613623142435415  0.7613623142576813  0.2036700397754103
  0.2613623142435415  0.7613623142576813  0.3674898417692702
  0.9999999999949480  0.6764359474211830  0.1760237216989680
  0.9999999999949480  0.6764359474211830  0.3398435236928208
  0.9999999999776890  0.7386377453679742  0.2036700397754103
  0.9999999999776890  0.7386377453679742  0.3674898417692702
  0.3230123221923904  0.4999999999725020  0.2574552893617081
  0.3230123221923904  0.4999999999725020  0.4212750913555681
  0.2612514793401104  0.4999999999725020  0.2852654158987775
  0.2612514793401104  0.4999999999725020  0.4490852178926374
  0.1769877075779576  0.6769877075818869  0.2574552893617081
  0.1769877075779576  0.6769877075818869  0.4212750913555681
  0.2387485504334208  0.7387486100416965  0.2852654158987775
  0.2387485504334208  0.7387486100416965  0.4490852178926374
  0.0000000000166622  0.8230123519652039  0.2574552893617081
  0.0000000000166622  0.8230123519652039  0.4212750913555681
  0.9999999999847233  0.7612514495839591  0.2852654158987775
  0.9999999999847233  0.7612514495839591  0.4490852178926374
  0.6690763234925114  0.5630359649679164  0.2904657721602604
  0.6690763234925114  0.5630359649679164  0.4542855741541132
  0.8939596414237130  0.8309237360809050  0.2904657721602604
  0.8939596414237130  0.8309237360809050  0.4542855741541132
  0.4369641244295863  0.6060403585493432  0.2904657721602604
  0.4369641244295863  0.6060403585493432  0.4542855741541132
  0.8308785557770051  0.4368239045121101  0.2088877558749687
  0.8308785557770051  0.4368239045121101  0.3727075578688286
  0.6059453487446973  0.6691214442060200  0.2088877558749687
  0.6059453487446973  0.6691214442060200  0.3727075578688286
  0.5631760954904053  0.8940547108800345  0.2088877558749687
  0.5631760954904053  0.8940547108800345  0.3727075578688286
  0.4368239641316762  0.8308786154196355  0.2088877558749687
  0.4368239641316762  0.8308786154196355  0.3727075578688286
  0.6691214442441904  0.6059453487456210  0.2088877558749687
  0.6691214442441904  0.6059453487456210  0.3727075578688286
  0.8940547108778460  0.5631760955114586  0.2088877558749687
  0.8940547108778460  0.5631760955114586  0.3727075578688286
  0.5630359650038486  0.6690763235447506  0.2904657721602604
  0.5630359650038486  0.6690763235447506  0.4542855741541132
  0.8309237361123181  0.8939597010763123  0.2904657721602604
  0.8309237361123181  0.8939597010763123  0.4542855741541132
  0.6060402989226858  0.4369640648311659  0.2904657721602604
  0.6060402989226858  0.4369640648311659  0.4542855741541132
  0.6764358877959609  0.4999999999725020  0.1760237216989680
  0.6764358877959609  0.4999999999725020  0.3398435236928208
  0.7386377453784334  0.4999999999725020  0.2036700397754103
  0.7386377453784334  0.4999999999725020  0.3674898417692702
  0.8235641121803710  0.8235641122044726  0.1760237216989680
  0.8235641121803710  0.8235641122044726  0.3398435236928208
  0.7613623142163277  0.7613623142576813  0.2036700397754103
  0.7613623142163277  0.7613623142576813  0.3674898417692702
  0.4999999999677343  0.6764359474211830  0.1760237216989680
  0.4999999999677343  0.6764359474211830  0.3398435236928208
  0.5000000000185167  0.7386377453679742  0.2036700397754103
  0.5000000000185167  0.7386377453679742  0.3674898417692702
  0.8230122923645951  0.4999999999725020  0.2574552893617081
  0.8230122923645951  0.4999999999725020  0.4212750913555681
  0.7612514495803495  0.4999999999725020  0.2852654158987775
  0.7612514495803495  0.4999999999725020  0.4490852178926374
  0.6769877076187782  0.6769877075818869  0.2574552893617081
  0.6769877076187782  0.6769877075818869  0.4212750913555681
  0.7387486100073701  0.7387486100416965  0.2852654158987775
  0.7387486100073701  0.7387486100416965  0.4490852178926374
  0.4999999999894484  0.8230123519652039  0.2574552893617081
  0.4999999999894484  0.8230123519652039  0.4212750913555681
  0.5000000000255511  0.7612514495839591  0.2852654158987775
  0.5000000000255511  0.7612514495839591  0.4490852178926374
  0.9369640349851807  0.1060403659617961  0.2904657721602604
  0.9369640349851807  0.1060403659617961  0.4542855741541132
  0.9368239045107103  0.3308785855930623  0.2088877558749687
  0.9368239045107103  0.3308785855930623  0.3727075578688286
  0.9369640946698254  0.6060403585493432  0.2904657721602604
  0.9369640946698254  0.6060403585493432  0.4542855741541132
  0.9368239045032993  0.8308786154196355  0.2088877558749687
  0.9368239045032993  0.8308786154196355  0.3727075578688286
  0.3308785855706375  0.9368239044846121  0.2088877558749687
  0.3308785855706375  0.9368239044846121  0.3727075578688286
  0.1060403734439390  0.9369640946577391  0.2904657721602604
  0.1060403734439390  0.9369640946577391  0.4542855741541132
  0.8308785557428422  0.9368239044846121  0.2088877558749687
  0.8308785557428422  0.9368239044846121  0.3727075578688286
  0.6060403585844725  0.9369640946577391  0.2904657721602604
  0.6060403585844725  0.9369640946577391  0.4542855741541132
  0.1707148403061680  0.0000000000000000  0.1956763267454633
  0.1707148403061680  0.0000000000000000  0.3594961287393232
  0.1726077348310184  0.0000000000000000  0.2963902354219670
  0.1726077348310184  0.0000000000000000  0.4602100374158269
  0.3292851448367244  0.3292851448390834  0.1956763267454633
  0.3292851448367244  0.3292851448390834  0.3594961287393232
  0.3273922502634647  0.3273922502854489  0.2963902354219670
  0.3273922502634647  0.3273922502854489  0.4602100374158269
  0.0000000000234053  0.1707148402849441  0.1956763267454633
  0.0000000000234053  0.1707148402849441  0.3594961287393232
  0.0000000000037801  0.1726077348385786  0.2963902354219670
  0.0000000000037801  0.1726077348385786  0.4602100374158269
  0.3288701176404416  0.0000000000000000  0.2771455347515968
  0.3288701176404416  0.0000000000000000  0.4409653367454567
  0.3270992636427081  0.0000000000000000  0.2145863324425648
  0.3270992636427081  0.0000000000000000  0.3784061344364247
  0.1711298972644926  0.1711298972283188  0.2771455347515968
  0.1711298972644926  0.1711298972283188  0.4409653367454567
  0.1729007065313581  0.1729007065332127  0.2145863324425648
  0.1729007065313581  0.1729007065332127  0.3784061344364247
  0.9999999999939035  0.3288700878957158  0.2771455347515968
  0.9999999999939035  0.3288700878957158  0.4409653367454567
  0.9999999999639826  0.3270992934392893  0.2145863324425648
  0.9999999999639826  0.3270992934392893  0.3784061344364247
  0.6707148551792415  0.0000000000000000  0.1956763267454633
  0.6707148551792415  0.0000000000000000  0.3594961287393232
  0.6726077795046734  0.0000000000000000  0.2963902354219670
  0.6726077795046734  0.0000000000000000  0.4602100374158269
  0.8292851448095107  0.3292851448390834  0.1956763267454633
  0.8292851448095107  0.3292851448390834  0.3594961287393232
  0.8273922205037039  0.3273922502854489  0.2963902354219670
  0.8273922205037039  0.3273922502854489  0.4602100374158269
  0.4999999999961915  0.1707148402849441  0.1956763267454633
  0.4999999999961915  0.1707148402849441  0.3594961287393232
  0.5000000000446008  0.1726077348385786  0.2963902354219670
  0.5000000000446008  0.1726077348385786  0.4602100374158269
  0.8288700580800992  0.0000000000000000  0.2771455347515968
  0.8288700580800992  0.0000000000000000  0.4409653367454567
  0.8270992636835288  0.0000000000000000  0.2145863324425648
  0.8270992636835288  0.0000000000000000  0.3784061344364247
  0.6711298823369845  0.1711298972283188  0.2771455347515968
  0.6711298823369845  0.1711298972283188  0.4409653367454567
  0.6729007363047259  0.1729007065332127  0.2145863324425648
  0.6729007363047259  0.1729007065332127  0.3784061344364247
  0.5000000000347313  0.3288700878957158  0.2771455347515968
  0.5000000000347313  0.3288700878957158  0.4409653367454567
  0.5000000000048033  0.3270992934392893  0.2145863324425648
  0.5000000000048033  0.3270992934392893  0.3784061344364247
  0.1707148402720051  0.4999999999725020  0.1956763267454633
  0.1707148402720051  0.4999999999725020  0.3594961287393232
  0.1726077347968555  0.4999999999725020  0.2963902354219670
  0.1726077347968555  0.4999999999725020  0.4602100374158269
  0.3292852044179355  0.8292852044411703  0.1956763267454633
  0.3292852044179355  0.8292852044411703  0.3594961287393232
  0.3273922503098774  0.8273922204824444  0.2963902354219670
  0.3273922503098774  0.8273922204824444  0.4602100374158269
  0.9999999999686011  0.6707148551844853  0.1956763267454633
  0.9999999999686011  0.6707148551844853  0.3594961287393232
  0.0000000000044764  0.6726077795136263  0.2963902354219670
  0.0000000000044764  0.6726077795136263  0.4602100374158269
  0.3288701176743203  0.4999999999725020  0.2771455347515968
  0.3288701176743203  0.4999999999725020  0.4409653367454567
  0.3270992934771684  0.4999999999725020  0.2145863324425648
  0.3270992934771684  0.4999999999725020  0.3784061344364247
  0.1711299120974417  0.6711299419033665  0.2771455347515968
  0.1711299120974417  0.6711299419033665  0.4409653367454567
  0.1729006916236528  0.6729007363597930  0.2145863324425648
  0.1729006916236528  0.6729007363597930  0.3784061344364247
  0.0000000000152482  0.8288701176437243  0.2771455347515968
  0.0000000000152482  0.8288701176437243  0.4409653367454567
  0.0000000000103952  0.8270992636362848  0.2145863324425648
  0.0000000000103952  0.8270992636362848  0.3784061344364247
  0.6707147955439225  0.4999999999725020  0.1956763267454633
  0.6707147955439225  0.4999999999725020  0.3594961287393232
  0.6726077794705105  0.4999999999725020  0.2963902354219670
  0.6726077794705105  0.4999999999725020  0.4602100374158269
  0.8292851447895586  0.8292852044411703  0.1956763267454633
  0.8292851447895586  0.8292852044411703  0.3594961287393232
  0.8273922204820821  0.8273922204824444  0.2963902354219670
  0.8273922204820821  0.8273922204824444  0.4602100374158269
  0.5000000000094218  0.6707148551844853  0.1956763267454633
  0.5000000000094218  0.6707148551844853  0.3594961287393232
  0.4999999999772626  0.6726077795136263  0.2963902354219670
  0.4999999999772626  0.6726077795136263  0.4602100374158269
  0.8288700580459434  0.4999999999725020  0.2771455347515968
  0.8288700580459434  0.4999999999725020  0.4409653367454567
  0.8270992636493659  0.4999999999725020  0.2145863324425648
  0.8270992636493659  0.4999999999725020  0.3784061344364247
  0.6711298823376808  0.6711299419033665  0.2771455347515968
  0.6711298823376808  0.6711299419033665  0.4409653367454567
  0.6729007363653494  0.6729007363597930  0.2145863324425648
  0.6729007363653494  0.6729007363597930  0.3784061344364247
  0.5000000595891976  0.8288701176437243  0.2771455347515968
  0.5000000595891976  0.8288701176437243  0.4409653367454567
  0.4999999999831815  0.8270992636362848  0.2145863324425648
  0.4999999999831815  0.8270992636362848  0.3784061344364247
 
  0.00000000E+00  0.00000000E+00  0.00000000E+00
  0.00000000E+00  0.00000000E+00  0.00000000E+00
  0.00000000E+00  0.00000000E+00  0.00000000E+00
  0.00000000E+00  0.00000000E+00  0.00000000E+00
  0.00000000E+00  0.00000000E+00  0.00000000E+00
  0.00000000E+00  0.00000000E+00  0.00000000E+00
  0.00000000E+00  0.00000000E+00  0.00000000E+00
  0.00000000E+00  0.00000000E+00  0.00000000E+00
  0.00000000E+00  0.00000000E+00  0.00000000E+00
  0.00000000E+00  0.00000000E+00  0.00000000E+00
  0.00000000E+00  0.00000000E+00  0.00000000E+00
  0.00000000E+00  0.00000000E+00  0.00000000E+00
  0.00000000E+00  0.00000000E+00  0.00000000E+00
  0.00000000E+00  0.00000000E+00  0.00000000E+00
  0.00000000E+00  0.00000000E+00  0.00000000E+00
  0.00000000E+00  0.00000000E+00  0.00000000E+00
  0.00000000E+00  0.00000000E+00  0.00000000E+00
  0.00000000E+00  0.00000000E+00  0.00000000E+00
  0.00000000E+00  0.00000000E+00  0.00000000E+00
  0.00000000E+00  0.00000000E+00  0.00000000E+00
  0.00000000E+00  0.00000000E+00  0.00000000E+00
  0.00000000E+00  0.00000000E+00  0.00000000E+00
  0.00000000E+00  0.00000000E+00  0.00000000E+00
  0.00000000E+00  0.00000000E+00  0.00000000E+00
  0.00000000E+00  0.00000000E+00  0.00000000E+00
  0.00000000E+00  0.00000000E+00  0.00000000E+00
  0.00000000E+00  0.00000000E+00  0.00000000E+00
  0.00000000E+00  0.00000000E+00  0.00000000E+00
  0.00000000E+00  0.00000000E+00  0.00000000E+00
  0.00000000E+00  0.00000000E+00  0.00000000E+00
  0.00000000E+00  0.00000000E+00  0.00000000E+00
  0.00000000E+00  0.00000000E+00  0.00000000E+00
  0.00000000E+00  0.00000000E+00  0.00000000E+00
  0.00000000E+00  0.00000000E+00  0.00000000E+00
  0.00000000E+00  0.00000000E+00  0.00000000E+00
  0.00000000E+00  0.00000000E+00  0.00000000E+00
  0.00000000E+00  0.00000000E+00  0.00000000E+00
  0.00000000E+00  0.00000000E+00  0.00000000E+00
  0.00000000E+00  0.00000000E+00  0.00000000E+00
  0.00000000E+00  0.00000000E+00  0.00000000E+00
  0.00000000E+00  0.00000000E+00  0.00000000E+00
  0.00000000E+00  0.00000000E+00  0.00000000E+00
  0.00000000E+00  0.00000000E+00  0.00000000E+00
  0.00000000E+00  0.00000000E+00  0.00000000E+00
  0.00000000E+00  0.00000000E+00  0.00000000E+00
  0.00000000E+00  0.00000000E+00  0.00000000E+00
  0.00000000E+00  0.00000000E+00  0.00000000E+00
  0.00000000E+00  0.00000000E+00  0.00000000E+00
  0.00000000E+00  0.00000000E+00  0.00000000E+00
  0.00000000E+00  0.00000000E+00  0.00000000E+00
  0.00000000E+00  0.00000000E+00  0.00000000E+00
  0.00000000E+00  0.00000000E+00  0.00000000E+00
  0.00000000E+00  0.00000000E+00  0.00000000E+00
  0.00000000E+00  0.00000000E+00  0.00000000E+00
  0.00000000E+00  0.00000000E+00  0.00000000E+00
  0.00000000E+00  0.00000000E+00  0.00000000E+00
  0.00000000E+00  0.00000000E+00  0.00000000E+00
  0.00000000E+00  0.00000000E+00  0.00000000E+00
  0.00000000E+00  0.00000000E+00  0.00000000E+00
  0.00000000E+00  0.00000000E+00  0.00000000E+00
  0.00000000E+00  0.00000000E+00  0.00000000E+00
  0.00000000E+00  0.00000000E+00  0.00000000E+00
  0.00000000E+00  0.00000000E+00  0.00000000E+00
  0.00000000E+00  0.00000000E+00  0.00000000E+00
  0.00000000E+00  0.00000000E+00  0.00000000E+00
  0.00000000E+00  0.00000000E+00  0.00000000E+00
  0.00000000E+00  0.00000000E+00  0.00000000E+00
  0.00000000E+00  0.00000000E+00  0.00000000E+00
  0.00000000E+00  0.00000000E+00  0.00000000E+00
  0.00000000E+00  0.00000000E+00  0.00000000E+00
  0.00000000E+00  0.00000000E+00  0.00000000E+00
  0.00000000E+00  0.00000000E+00  0.00000000E+00
  0.00000000E+00  0.00000000E+00  0.00000000E+00
  0.00000000E+00  0.00000000E+00  0.00000000E+00
  0.00000000E+00  0.00000000E+00  0.00000000E+00
  0.00000000E+00  0.00000000E+00  0.00000000E+00
  0.00000000E+00  0.00000000E+00  0.00000000E+00
  0.00000000E+00  0.00000000E+00  0.00000000E+00
  0.00000000E+00  0.00000000E+00  0.00000000E+00
  0.00000000E+00  0.00000000E+00  0.00000000E+00
  0.00000000E+00  0.00000000E+00  0.00000000E+00
  0.00000000E+00  0.00000000E+00  0.00000000E+00
  0.00000000E+00  0.00000000E+00  0.00000000E+00
  0.00000000E+00  0.00000000E+00  0.00000000E+00
  0.00000000E+00  0.00000000E+00  0.00000000E+00
  0.00000000E+00  0.00000000E+00  0.00000000E+00
  0.00000000E+00  0.00000000E+00  0.00000000E+00
  0.00000000E+00  0.00000000E+00  0.00000000E+00
  0.00000000E+00  0.00000000E+00  0.00000000E+00
  0.00000000E+00  0.00000000E+00  0.00000000E+00
  0.00000000E+00  0.00000000E+00  0.00000000E+00
  0.00000000E+00  0.00000000E+00  0.00000000E+00
  0.00000000E+00  0.00000000E+00  0.00000000E+00
  0.00000000E+00  0.00000000E+00  0.00000000E+00
  0.00000000E+00  0.00000000E+00  0.00000000E+00
  0.00000000E+00  0.00000000E+00  0.00000000E+00
  0.00000000E+00  0.00000000E+00  0.00000000E+00
  0.00000000E+00  0.00000000E+00  0.00000000E+00
  0.00000000E+00  0.00000000E+00  0.00000000E+00
  0.00000000E+00  0.00000000E+00  0.00000000E+00
  0.00000000E+00  0.00000000E+00  0.00000000E+00
  0.00000000E+00  0.00000000E+00  0.00000000E+00
  0.00000000E+00  0.00000000E+00  0.00000000E+00
  0.00000000E+00  0.00000000E+00  0.00000000E+00
  0.00000000E+00  0.00000000E+00  0.00000000E+00
  0.00000000E+00  0.00000000E+00  0.00000000E+00
  0.00000000E+00  0.00000000E+00  0.00000000E+00
  0.00000000E+00  0.00000000E+00  0.00000000E+00
  0.00000000E+00  0.00000000E+00  0.00000000E+00
  0.00000000E+00  0.00000000E+00  0.00000000E+00
  0.00000000E+00  0.00000000E+00  0.00000000E+00
  0.00000000E+00  0.00000000E+00  0.00000000E+00
  0.00000000E+00  0.00000000E+00  0.00000000E+00
  0.00000000E+00  0.00000000E+00  0.00000000E+00
  0.00000000E+00  0.00000000E+00  0.00000000E+00
  0.00000000E+00  0.00000000E+00  0.00000000E+00
  0.00000000E+00  0.00000000E+00  0.00000000E+00
  0.00000000E+00  0.00000000E+00  0.00000000E+00
  0.00000000E+00  0.00000000E+00  0.00000000E+00
  0.00000000E+00  0.00000000E+00  0.00000000E+00
  0.00000000E+00  0.00000000E+00  0.00000000E+00
  0.00000000E+00  0.00000000E+00  0.00000000E+00
  0.00000000E+00  0.00000000E+00  0.00000000E+00
  0.00000000E+00  0.00000000E+00  0.00000000E+00
  0.00000000E+00  0.00000000E+00  0.00000000E+00
  0.00000000E+00  0.00000000E+00  0.00000000E+00
  0.00000000E+00  0.00000000E+00  0.00000000E+00
  0.00000000E+00  0.00000000E+00  0.00000000E+00
  0.00000000E+00  0.00000000E+00  0.00000000E+00
  0.00000000E+00  0.00000000E+00  0.00000000E+00
  0.00000000E+00  0.00000000E+00  0.00000000E+00
  0.00000000E+00  0.00000000E+00  0.00000000E+00
  0.00000000E+00  0.00000000E+00  0.00000000E+00
  0.00000000E+00  0.00000000E+00  0.00000000E+00
  0.00000000E+00  0.00000000E+00  0.00000000E+00
  0.00000000E+00  0.00000000E+00  0.00000000E+00
  0.00000000E+00  0.00000000E+00  0.00000000E+00
  0.00000000E+00  0.00000000E+00  0.00000000E+00
  0.00000000E+00  0.00000000E+00  0.00000000E+00
  0.00000000E+00  0.00000000E+00  0.00000000E+00
  0.00000000E+00  0.00000000E+00  0.00000000E+00
  0.00000000E+00  0.00000000E+00  0.00000000E+00
  0.00000000E+00  0.00000000E+00  0.00000000E+00
  0.00000000E+00  0.00000000E+00  0.00000000E+00
  0.00000000E+00  0.00000000E+00  0.00000000E+00
  0.00000000E+00  0.00000000E+00  0.00000000E+00
  0.00000000E+00  0.00000000E+00  0.00000000E+00
  0.00000000E+00  0.00000000E+00  0.00000000E+00
  0.00000000E+00  0.00000000E+00  0.00000000E+00
  0.00000000E+00  0.00000000E+00  0.00000000E+00
  0.00000000E+00  0.00000000E+00  0.00000000E+00
  0.00000000E+00  0.00000000E+00  0.00000000E+00
  0.00000000E+00  0.00000000E+00  0.00000000E+00
  0.00000000E+00  0.00000000E+00  0.00000000E+00
  0.00000000E+00  0.00000000E+00  0.00000000E+00
  0.00000000E+00  0.00000000E+00  0.00000000E+00
  0.00000000E+00  0.00000000E+00  0.00000000E+00
  0.00000000E+00  0.00000000E+00  0.00000000E+00
  0.00000000E+00  0.00000000E+00  0.00000000E+00
  0.00000000E+00  0.00000000E+00  0.00000000E+00
  0.00000000E+00  0.00000000E+00  0.00000000E+00
  0.00000000E+00  0.00000000E+00  0.00000000E+00
  0.00000000E+00  0.00000000E+00  0.00000000E+00
  0.00000000E+00  0.00000000E+00  0.00000000E+00
  0.00000000E+00  0.00000000E+00  0.00000000E+00
  0.00000000E+00  0.00000000E+00  0.00000000E+00
  0.00000000E+00  0.00000000E+00  0.00000000E+00
  0.00000000E+00  0.00000000E+00  0.00000000E+00
  0.00000000E+00  0.00000000E+00  0.00000000E+00
  0.00000000E+00  0.00000000E+00  0.00000000E+00
  0.00000000E+00  0.00000000E+00  0.00000000E+00
  0.00000000E+00  0.00000000E+00  0.00000000E+00
  0.00000000E+00  0.00000000E+00  0.00000000E+00
  0.00000000E+00  0.00000000E+00  0.00000000E+00
  0.00000000E+00  0.00000000E+00  0.00000000E+00
  0.00000000E+00  0.00000000E+00  0.00000000E+00
  0.00000000E+00  0.00000000E+00  0.00000000E+00
  0.00000000E+00  0.00000000E+00  0.00000000E+00
  0.00000000E+00  0.00000000E+00  0.00000000E+00
  0.00000000E+00  0.00000000E+00  0.00000000E+00
  0.00000000E+00  0.00000000E+00  0.00000000E+00
  0.00000000E+00  0.00000000E+00  0.00000000E+00
  0.00000000E+00  0.00000000E+00  0.00000000E+00
  0.00000000E+00  0.00000000E+00  0.00000000E+00
  0.00000000E+00  0.00000000E+00  0.00000000E+00
  0.00000000E+00  0.00000000E+00  0.00000000E+00
  0.00000000E+00  0.00000000E+00  0.00000000E+00
  0.00000000E+00  0.00000000E+00  0.00000000E+00
  0.00000000E+00  0.00000000E+00  0.00000000E+00
  0.00000000E+00  0.00000000E+00  0.00000000E+00
  0.00000000E+00  0.00000000E+00  0.00000000E+00
  0.00000000E+00  0.00000000E+00  0.00000000E+00
  0.00000000E+00  0.00000000E+00  0.00000000E+00
  0.00000000E+00  0.00000000E+00  0.00000000E+00
  0.00000000E+00  0.00000000E+00  0.00000000E+00
  0.00000000E+00  0.00000000E+00  0.00000000E+00
  0.00000000E+00  0.00000000E+00  0.00000000E+00
  0.00000000E+00  0.00000000E+00  0.00000000E+00
  0.00000000E+00  0.00000000E+00  0.00000000E+00
  0.00000000E+00  0.00000000E+00  0.00000000E+00
  0.00000000E+00  0.00000000E+00  0.00000000E+00
  0.00000000E+00  0.00000000E+00  0.00000000E+00
  0.00000000E+00  0.00000000E+00  0.00000000E+00
  0.00000000E+00  0.00000000E+00  0.00000000E+00
  0.00000000E+00  0.00000000E+00  0.00000000E+00
  0.00000000E+00  0.00000000E+00  0.00000000E+00
  0.00000000E+00  0.00000000E+00  0.00000000E+00
  0.00000000E+00  0.00000000E+00  0.00000000E+00
  0.00000000E+00  0.00000000E+00  0.00000000E+00
  0.00000000E+00  0.00000000E+00  0.00000000E+00
  0.00000000E+00  0.00000000E+00  0.00000000E+00
  0.00000000E+00  0.00000000E+00  0.00000000E+00
  0.00000000E+00  0.00000000E+00  0.00000000E+00
  0.00000000E+00  0.00000000E+00  0.00000000E+00
  0.00000000E+00  0.00000000E+00  0.00000000E+00
  0.00000000E+00  0.00000000E+00  0.00000000E+00
  0.00000000E+00  0.00000000E+00  0.00000000E+00
  0.00000000E+00  0.00000000E+00  0.00000000E+00
  0.00000000E+00  0.00000000E+00  0.00000000E+00
  0.00000000E+00  0.00000000E+00  0.00000000E+00
  0.00000000E+00  0.00000000E+00  0.00000000E+00
  0.00000000E+00  0.00000000E+00  0.00000000E+00
  0.00000000E+00  0.00000000E+00  0.00000000E+00
  0.00000000E+00  0.00000000E+00  0.00000000E+00
  0.00000000E+00  0.00000000E+00  0.00000000E+00
  0.00000000E+00  0.00000000E+00  0.00000000E+00
  0.00000000E+00  0.00000000E+00  0.00000000E+00
  0.00000000E+00  0.00000000E+00  0.00000000E+00
  0.00000000E+00  0.00000000E+00  0.00000000E+00
  0.00000000E+00  0.00000000E+00  0.00000000E+00
  0.00000000E+00  0.00000000E+00  0.00000000E+00
  0.00000000E+00  0.00000000E+00  0.00000000E+00
  0.00000000E+00  0.00000000E+00  0.00000000E+00
  0.00000000E+00  0.00000000E+00  0.00000000E+00
  0.00000000E+00  0.00000000E+00  0.00000000E+00
  0.00000000E+00  0.00000000E+00  0.00000000E+00
  0.00000000E+00  0.00000000E+00  0.00000000E+00
  0.00000000E+00  0.00000000E+00  0.00000000E+00
  0.00000000E+00  0.00000000E+00  0.00000000E+00
  0.00000000E+00  0.00000000E+00  0.00000000E+00
  0.00000000E+00  0.00000000E+00  0.00000000E+00
  0.00000000E+00  0.00000000E+00  0.00000000E+00
  0.00000000E+00  0.00000000E+00  0.00000000E+00
  0.00000000E+00  0.00000000E+00  0.00000000E+00
  0.00000000E+00  0.00000000E+00  0.00000000E+00
  0.00000000E+00  0.00000000E+00  0.00000000E+00
  0.00000000E+00  0.00000000E+00  0.00000000E+00