au_111_4_layers_5x5_with_h2o_6_bilayers_
   1.00000000000000     
    14.6976995467999991    0.0000000000000000    0.0000000000000000
    -7.3488497733999996   12.7285811846999994    0.0000000000000000
     0.0000000000000000    0.0000000000000000   49.2004013061999999
   Au   H    O 
   100   144    72
Selective dynamics
Direct
  0.0000000000000000  0.0000000000000000  0.0000000000000000   F   F   F
  0.2665628116867751  0.1334805920692759  0.0474741758687571   T   T   T
  0.1335984771101337  0.2665307831580037  0.0943195959775380   T   T   T
  0.0000068119769736  0.0000073241276439  0.1426938910963287   T   T   T
  0.9999999999764526  0.2000000029901230  0.0000000000000000   F   F   F
  0.2670640827592194  0.3335532668919967  0.0474061537743395   T   T   T
  0.1328705694315389  0.0666862752737174  0.0944096994835633   T   T   T
  0.0002435909741223  0.2000627685496568  0.1417571615311175   T   T   T
  0.2000000030136633  0.2000000029901230  0.0000000000000000   F   F   F
  0.0667768611001378  0.3333753801556369  0.0475141031168320   T   T   T
  0.3333028425243754  0.0670737099253529  0.0942892961803565   T   T   T
  0.1993995432246578  0.1991768249254804  0.1424444640833258   T   T   T
  0.2000000029691691  0.0000000000000000  0.0000000000000000   F   F   F
  0.0665178223261336  0.1334654858791495  0.0474147944926031   T   T   T
  0.3329380774690094  0.2669087087519628  0.0944892717124191   T   T   T
  0.1998273882373169  0.9997597904733979  0.1417564502062021   T   T   T
  0.4000000059383453  0.0000000000000000  0.0000000000000000   F   F   F
  0.6665306482503937  0.1332366414019148  0.0475224201275140   T   T   T
  0.5327723882475794  0.2664433874917123  0.0944297368052460   T   T   T
  0.3988383039046113  0.0000699427078672  0.1422170708704940   T   T   T
  0.4000000059828395  0.2000000029901230  0.0000000000000000   F   F   F
  0.6666624951209741  0.3333283227799626  0.0476332851771133   T   T   T
  0.5323511697884058  0.0666776489250580  0.0942866863338381   T   T   T
  0.3990445140446184  0.2004036785709289  0.1422456683703786   T   T   T
  0.6000000238523029  0.2000000029901230  0.0000000000000000   F   F   F
  0.4667059247376955  0.3334687547856561  0.0475221545210402   T   T   T
  0.7330901037237325  0.0660276069214447  0.0944889709379524   T   T   T
  0.6005588895508964  0.2002761026404301  0.1419394035489390   T   T   T
  0.6000000238758432  0.0000000000000000  0.0000000000000000   F   F   F
  0.4668068395792488  0.1337235103769814  0.0473101927964166   T   T   T
  0.7335551055413276  0.2663332614984668  0.0944308107445906   T   T   T
  0.5983463644650655  0.0000187546408199  0.1417083213266466   T   T   T
  0.8000000119447250  0.0000000000000000  0.0000000000000000   F   F   F
  0.9329229931055423  0.2662211615377856  0.0942885783081735   T   T   T
  0.8008234393111806  0.0002203207058429  0.1424434599677582   T   T   T
  0.7999999523200216  0.2000000029901230  0.0000000000000000   F   F   F
  0.9333124268650579  0.0661846209002661  0.0944093825744332   T   T   T
  0.7995963940475761  0.1986402171730717  0.1422457737299681   T   T   T
  0.8662678850177556  0.3330748348038313  0.0473103457212929   T   T   T
  0.8665176723636918  0.1330781323750045  0.0474733437762396   T   T   T
  0.0000000000209468  0.4000000059802389  0.0000000000000000   F   F   F
  0.2664149495855455  0.5332239525030431  0.0474311014928190   T   T   T
  0.1336080512526223  0.6667031158144709  0.0942781020145560   T   T   T
  0.9999227727985200  0.3987609536406893  0.1422161261678383   T   T   T
  0.0000000000055138  0.6000000238188363  0.0000000000000000   F   F   F
  0.2668150472398736  0.7335867164728711  0.0474300692269125   T   T   T
  0.1334696233419379  0.4663268026581804  0.0946101432605460   T   T   T
  0.9999651141615260  0.5983324906149861  0.1417029725213084   T   T   T
  0.2000000178749772  0.6000000238188363  0.0000000000000000   F   F   F
  0.0664911557169461  0.7329330813904420  0.0474054312607208   T   T   T
  0.3333053994398298  0.4668948012782010  0.0942808205672279   T   T   T
  0.2003043285141715  0.6005885639727495  0.1420016682289926   T   T   T
  0.2000000029901230  0.4000000059802389  0.0000000000000000   F   F   F
  0.0667710382074347  0.5330265623247143  0.0474781113520208   T   T   T
  0.3333318810537236  0.6666614604350798  0.0943055000426298   T   T   T
  0.2006821939753394  0.3989486624027592  0.1422586413084517   T   T   T
  0.4000000059592921  0.4000000059802389  0.0000000000000000   F   F   F
  0.6669215724882562  0.5331896109328085  0.0473107663697903   T   T   T
  0.5336659381268305  0.6671345269710613  0.0946113295210154   T   T   T
  0.4016568587506839  0.4016263444866510  0.1417175839002596   T   T   T
  0.4000000357444407  0.6000000238188363  0.0000000000000000   F   F   F
  0.6666241557195960  0.7334013270928139  0.0475147635651965   T   T   T
  0.5343189594871092  0.4676482576596186  0.0942878049511435   T   T   T
  0.3993917654195727  0.5997059623544700  0.1420028094243762   T   T   T
  0.6000000238133225  0.6000000238188363  0.0000000000000000   F   F   F
  0.4667797296074809  0.7331940083220019  0.0474312731290780   T   T   T
  0.7336711077019444  0.4672202716871467  0.0944295014556289   T   T   T
  0.6012223432576462  0.6011560948744616  0.1422178759200605   T   T   T
  0.6000000238287555  0.4000000059802389  0.0000000000000000   F   F   F
  0.4669738341481491  0.5337435244865603  0.0474788788900113   T   T   T
  0.7337667432244501  0.6666946463668779  0.0942892197477079   T   T   T
  0.5997141692533958  0.3994452613487098  0.1419380149196741   T   T   T
  0.8000000118976374  0.4000000059802389  0.0000000000000000   F   F   F
  0.9339671889407484  0.6670598379738593  0.0944868894460171   T   T   T
  0.7997369757762272  0.4002882862193928  0.1419415286122430   T   T   T
  0.8000000118822044  0.6000000238188363  0.0000000000000000   F   F   F
  0.9333280396237740  0.4656651740917042  0.0942849414401365   T   T   T
  0.8013469138488389  0.6009559383294629  0.1422430974110824   T   T   T
  0.8669171762192676  0.7334337851444559  0.0474737501546372   T   T   T
  0.8667658555910620  0.5332946435956032  0.0475216062544419   T   T   T
  0.0000000000419007  0.8000000119604849  0.0000000000000000   F   F   F
  0.2665942566599284  0.9332203864527173  0.0475146422977417   T   T   T
  0.9997737415547903  0.8006070096596289  0.1424430288232088   T   T   T
  0.1329278334937456  0.8664000778243661  0.0943191444056879   T   T   T
  0.3328639758389826  0.8665344125755468  0.0946111526653937   T   T   T
  0.2000000030110698  0.8000000119604849  0.0000000000000000   F   F   F
  0.0669499608966646  0.9334845661317317  0.0474148660849778   T   T   T
  0.1982635162840509  0.7993139259131610  0.1422581682089401   T   T   T
  0.4000000059802389  0.8000000119604849  0.0000000000000000   F   F   F
  0.6664427001961215  0.9335100104431149  0.0474072713799103   T   T   T
  0.4002643425376746  0.7996625354062772  0.1420040148166848   T   T   T
  0.5330934614699672  0.8663948029054609  0.0942819929371197   T   T   T
  0.7334686674894542  0.8670649335425722  0.0943197444444550   T   T   T
  0.6000000238497023  0.8000000119604849  0.0000000000000000   F   F   F
  0.4662602020076392  0.9332322393475394  0.0474793632097033   T   T   T
  0.6010496168021149  0.8017258684769573  0.1422585691355778   T   T   T
  0.8000000119185842  0.8000000119604849  0.0000000000000000   F   F   F
  0.7999455031391065  0.8001799728688042  0.1417580455693326   T   T   T
  0.9338151847055158  0.8671297578394928  0.0944086562191515   T   T   T
  0.8665340876934238  0.9330502279106270  0.0474142230315806   T   T   T
  0.1677129593975977  0.0632591987401341  0.2967814989129280   T   T   T
  0.3971575710733575  0.3340858666531403  0.2960401057807971   T   T   T
  0.1048258418229082  0.1678925691337767  0.2203824551872984   T   T   T
  0.1041192184640707  0.1675296031051019  0.3733893379648308   T   T   T
  0.0632810845163831  0.3941666824454373  0.2189697978150988   T   T   T
  0.0633912946816295  0.3966485346737301  0.3732435774347351   T   T   T
  0.1679301882321838  0.1048261595076738  0.2203763134639090   T   T   T
  0.1675294559115628  0.1041179831655015  0.3733893562644539   T   T   T
  0.3941238777138452  0.0631763482090406  0.2189823325917857   T   T   T
  0.3966571031406261  0.0634065996106301  0.3732339113204688   T   T   T
  0.0632742208257682  0.1677129649650055  0.2967806324017701   T   T   T
  0.3340841627163869  0.3971551920906862  0.2960540246889849   T   T   T
  0.1682656785468026  0.9997578374479374  0.1881364894765483   T   T   T
  0.1720374446171178  0.9999654116599359  0.3403962002993666   T   T   T
  0.2342201118402869  0.9998900196409934  0.2146967888200706   T   T   T
  0.2346411150901488  0.0000092813738561  0.3679585292816370   T   T   T
  0.3239346411045432  0.3242152300696830  0.1870587835062238   T   T   T
  0.3297682314571304  0.3297575637839216  0.3401906107012707   T   T   T
  0.2637388204125415  0.2637891647841286  0.2146915029209779   T   T   T
  0.2661912254873187  0.2661900320688844  0.3676303988698777   T   T   T
  0.9998374892967163  0.1682957822250941  0.1881391356928148   T   T   T
  0.9999757721373328  0.1720414102537475  0.3403955124937994   T   T   T
  0.9999515443272244  0.2342455193090203  0.2146978002829485   T   T   T
  0.0000021172140308  0.2346358022482775  0.3679581138945096   T   T   T
  0.3282353605457402  0.0000436101798513  0.2633498362519262   T   T   T
  0.2661962632126560  0.0000243258597408  0.2908382526400075   T   T   T
  0.1723121429430421  0.1722921938744477  0.2641489484119148   T   T   T
  0.2349030281969604  0.2348910072998294  0.2914160137754251   T   T   T
  0.0001283874184850  0.3282779031302354  0.2633488178062890   T   T   T
  0.0000491167672223  0.2662073546128596  0.2908370176633142   T   T   T
  0.6660261226996198  0.0631090664957767  0.2960603241328670   T   T   T
  0.8955555797182910  0.3326827651280055  0.2961298214656196   T   T   T
  0.4371529370844556  0.1046276645180910  0.2961274138426475   T   T   T
  0.6031629784878874  0.1670568199402425  0.2183257261994314   T   T   T
  0.6037846711504287  0.1674439635716922  0.3732606263861484   T   T   T
  0.5638918156249417  0.3968308638864144  0.2183025065689108   T   T   T
  0.5636526541079192  0.3961752468233897  0.3732790024197925   T   T   T
  0.4374183640594254  0.3333350574509808  0.2185711645900739   T   T   T
  0.4369858404603377  0.3330549076919738  0.3734222797005700   T   T   T
  0.6666548615396195  0.1041039905566521  0.2185708466230238   T   T   T
  0.6669075644127105  0.1038885698749183  0.3734002009791695   T   T   T
  0.8948695866027592  0.0629682197035422  0.2203895721830449   T   T   T
  0.8958742375395730  0.0634252854715314  0.3733957692762360   T   T   T
  0.5632987175796984  0.1678551860541049  0.2959059027700874   T   T   T
  0.8323302789899785  0.3956024588692912  0.2958963354055726   T   T   T
  0.6757528905496315  0.9997815447573331  0.1870342473537008   T   T   T
  0.6703057554770950  0.9999820905532104  0.3401980424210294   T   T   T
  0.7360856270755605  0.9999221714499740  0.2146842678530305   T   T   T
  0.7338578520343049  0.0000016164694259  0.3676483168831410   T   T   T
  0.8290540606256442  0.3248659885397913  0.1863903531771882   T   T   T
  0.8279949200094450  0.3283863208578168  0.3399700199504565   T   T   T
  0.7637223167843459  0.2632105825232571  0.2133673365934214   T   T   T
  0.7655550957822186  0.2656843671071201  0.3675780547050707   T   T   T
  0.4958108352186414  0.1709907013630172  0.1863770083638414   T   T   T
  0.5003588733340791  0.1721276922800996  0.3399651842018940   T   T   T
  0.4994899349742923  0.2363314611951708  0.2133541312741940   T   T   T
  0.5001201929183736  0.2345151373584002  0.3675935245943123   T   T   T
  0.8276766900696089  0.9999868846788971  0.2641561550143763   T   T   T
  0.7651696292553751  0.0000287405266874  0.2914329776345070   T   T   T
  0.6712063443454994  0.1719323751523376  0.2627024011460435   T   T   T
  0.7339089630205109  0.2341517834511109  0.2901384850388666   T   T   T
  0.5007595291887341  0.3288657651617513  0.2626790431503707   T   T   T
  0.5002589234020434  0.2661793750801777  0.2901251349793128   T   T   T
  0.1678456217148749  0.5633073522032390  0.2959366237978642   T   T   T
  0.3956248513913536  0.8323418291037541  0.2959276154906405   T   T   T
  0.3333488597260228  0.4374729006988574  0.2186244604454259   T   T   T
  0.3330565802186811  0.4369824225758023  0.3734282274609697   T   T   T
  0.1041323745220595  0.6666414717908680  0.2186239668567609   T   T   T
  0.1038809582771592  0.6669056452936672  0.3734070443651731   T   T   T
  0.0629466274464150  0.8948788445271845  0.2203921242992735   T   T   T
  0.0634262965647849  0.8958722955257485  0.3733963280320367   T   T   T
  0.1670762545816089  0.6031328693403069  0.2183770672965721   T   T   T
  0.1674350536447520  0.6037831373489766  0.3732766391417854   T   T   T
  0.3968662544024255  0.5639547248224872  0.2183532101209948   T   T   T
  0.3961801001793361  0.5636481504462907  0.3732942939570094   T   T   T
  0.0631167468259548  0.6660309971544578  0.2960744901205175   T   T   T
  0.3326998462825941  0.8955698706246125  0.2961475808559797   T   T   T
  0.1046159683919186  0.4371542057651538  0.2961442744651492   T   T   T
  0.1713502819636901  0.4961398617152994  0.1863947459088280   T   T   T
  0.1721076754807171  0.5003470901155538  0.3399826508165944   T   T   T
  0.2364419096365751  0.4995753061822512  0.2133970507349829   T   T   T
  0.2345062156153546  0.5001164104408033  0.3676092519783651   T   T   T
  0.3248207403467944  0.8287068432930411  0.1864091163319941   T   T   T
  0.3283902824426050  0.8280090367691457  0.3399875355407431   T   T   T
  0.2631714988008369  0.7636151801629012  0.2134106492767316   T   T   T
  0.2656824504680415  0.7655597554761400  0.3675944314811304   T   T   T
  0.0003245993333536  0.6760303723215699  0.1870332032627360   T   T   T
  0.9999622546619520  0.6702944279764509  0.3401979157654154   T   T   T
  0.0000250609422707  0.7361432613940622  0.2146832621369086   T   T   T
  0.9999990254483606  0.7338558891355191  0.3676480839028287   T   T   T
  0.3288893125017012  0.5008022983310525  0.2627211444772755   T   T   T
  0.2661678379307162  0.5002652199856215  0.2901644594826180   T   T   T
  0.1719522464458905  0.6711897050408240  0.2627444817734172   T   T   T
  0.2341765690884685  0.7339247653574503  0.2901773754279091   T   T   T
  0.9999621967469636  0.8276647792424470  0.2641557171250568   T   T   T
  0.0000117039893226  0.7651602477362118  0.2914325574472230   T   T   T
  0.6674285419065598  0.5628663549587642  0.2961406223619605   T   T   T
  0.8955537387374619  0.8323139769472832  0.2967780337183896   T   T   T
  0.4367234160304463  0.6044914109747168  0.2959206177387941   T   T   T
  0.8330170075442496  0.4361617109092180  0.2183354472419410   T   T   T
  0.8325248502037326  0.4363840807473451  0.3732874702657014   T   T   T
  0.6056593697451760  0.6689035066739280  0.2189719674560067   T   T   T
  0.6032790391379876  0.6666285357141248  0.3732367394328122   T   T   T
  0.5625577347233062  0.8959597413929714  0.2186140716836746   T   T   T
  0.5630571491339538  0.8960586443170016  0.3734168647175977   T   T   T
  0.4360960214783702  0.8329931381630544  0.2183851477517678   T   T   T
  0.4363919560453979  0.8325287676580899  0.3733024886875214   T   T   T
  0.6688389326734665  0.6056962493575853  0.2189829562600778   T   T   T
  0.6666408287467149  0.6032689333377732  0.3732268950800517   T   T   T
  0.8959927804903742  0.5626156119859616  0.2185612003782254   T   T   T
  0.8960546267291463  0.5630515606463291  0.3734113520340117   T   T   T
  0.5628676140090931  0.6674111159456615  0.2961588791294787   T   T   T
  0.8323129506090154  0.8955657018835979  0.2967779414815510   T   T   T
  0.6045136632898647  0.4367302605220758  0.2958885583936492   T   T   T
  0.6752651079200476  0.5041529958466668  0.1863743415396399   T   T   T
  0.6716620114307048  0.4995459655922261  0.3399651719609906   T   T   T
  0.7369022387617221  0.5005148751666511  0.2133628415547548   T   T   T
  0.7343472689094455  0.4998559057302998  0.3675894031777389   T   T   T
  0.8314509549200366  0.8314916620576938  0.1881439463600856   T   T   T
  0.8279539554126316  0.8279582605546949  0.3403980592308926   T   T   T
  0.7655463674952330  0.7655749366519302  0.2146974435756590   T   T   T
  0.7653695118426072  0.7653640794689238  0.3679511919581557   T   T   T
  0.5038356587697237  0.6753023323658596  0.1863917832886912   T   T   T
  0.4995601139812607  0.6716512330910760  0.3399834670031083   T   T   T
  0.5004386816787800  0.7369375723580660  0.2134043794841531   T   T   T
  0.4998654784459475  0.7343451369468994  0.3676055031230092   T   T   T
  0.8281597398073188  0.4993827897388528  0.2626954340351091   T   T   T
  0.7659174167171159  0.4998035516738639  0.2901381475169913   T   T   T
  0.6716793520170725  0.6717204740103853  0.2633484927038410   T   T   T
  0.7337822073445679  0.7337927050293658  0.2908276705810806   T   T   T
  0.4993384270002963  0.8281339908078138  0.2627369618544293   T   T   T
  0.4997964717949230  0.7658930466209455  0.2901771455506221   T   T   T
  0.9367737401512954  0.1044493289132191  0.2967701187504872   T   T   T
  0.9369174777075031  0.3310117584351531  0.2189980808574603   T   T   T
  0.9366767519325734  0.3332991026565679  0.3732487601712009   T   T   T
  0.9369603498569177  0.6029543703980664  0.2960479414445558   T   T   T
  0.9367679728976483  0.8317634790643211  0.2203955472678700   T   T   T
  0.9366033373426816  0.8324524084901626  0.3734070950984005   T   T   T
  0.3309451828973451  0.9368115834103250  0.2189892165368832   T   T   T
  0.3333095109295527  0.9366926162829543  0.3732576691181535   T   T   T
  0.1044377176327345  0.9367588335047330  0.2967706695110479   T   T   T
  0.8317876978916132  0.9367901836238346  0.2204006601848008   T   T   T
  0.8324514023094451  0.9366021992887923  0.3734075635832639   T   T   T
  0.6029530731720598  0.9369528142839201  0.2960618237907795   T   T   T
  0.1670554310858776  0.9997892568628615  0.2081989847403349   T   T   T
  0.1687885914120741  0.9999613809404835  0.3604693688992597   T   T   T
  0.1698948941512128  0.9999931224079859  0.3036235350474215   T   T   T
  0.3294624070583652  0.3295619413169604  0.2069909274637993   T   T   T
  0.3321997649194302  0.3322003125301762  0.3602674796366188   T   T   T
  0.3326980672685949  0.3326832989304904  0.3033440916157559   T   T   T
  0.9998090516145197  0.1670581070752988  0.2082010427210861   T   T   T
  0.9999647695615650  0.1687880574511098  0.3604688254950830   T   T   T
  0.0000122015610486  0.1699032440689550  0.3036225730161775   T   T   T
  0.3316138443052807  0.0000827960974661  0.2833992559095933   T   T   T
  0.3298031486836237  0.9999985524995765  0.2263291983860398   T   T   T
  0.3300175189479901  0.0000629191430619  0.3794670469670365   T   T   T
  0.1692683506780881  0.1692559154261843  0.2842172600018174   T   T   T
  0.1701314299156067  0.1701093908890314  0.2274213219568182   T   T   T
  0.1712465432990484  0.1712454339644935  0.3793455853553525   T   T   T
  0.0001072645171831  0.3316252813818892  0.2833980917737549   T   T   T
  0.0001113065222924  0.3298623813963957  0.2263274078422910   T   T   T
  0.0000334378497513  0.3299988693540925  0.3794673881696085   T   T   T
  0.6703556413526925  0.9999367992258996  0.2069655469479983   T   T   T
  0.6678299495021207  0.9999549724649839  0.3602749019877152   T   T   T
  0.6674101037739888  0.0000393094290700  0.3033601211965262   T   T   T
  0.8310356546859978  0.3288465272859042  0.2063606389120949   T   T   T
  0.8313455056618153  0.3314613111441673  0.3600352660856601   T   T   T
  0.8301643374329402  0.3305171886440093  0.3030053829970996   T   T   T
  0.4978069486341212  0.1690103672478713  0.2063471791794953   T   T   T
  0.5000732713801668  0.1687224276975385  0.3600295553047559   T   T   T
  0.5003724478142786  0.1700181080523109  0.3030097224907209   T   T   T
  0.8308004982951473  0.0000353741922439  0.2842243130165940   T   T   T
  0.8295987281722645  0.9998952332665496  0.2274442351739765   T   T   T
  0.8287715620460432  0.0000240537172900  0.3793717232269742   T   T   T
  0.6683997004539464  0.1687855945525385  0.2827531566615420   T   T   T
  0.6678723494810015  0.1689020484101036  0.2255821730277816   T   T   T
  0.6706380726770647  0.1709859561742917  0.3794008089698693   T   T   T
  0.5004208334210105  0.3316934937475935  0.2827293076848250   T   T   T
  0.5010292319087810  0.3321464314194884  0.2255702817739405   T   T   T
  0.5003489203261395  0.3293493820058231  0.3794396191933487   T   T   T
  0.1691436676081892  0.4978861747278245  0.2063643120600460   T   T   T
  0.1687139866930565  0.5000719875658461  0.3600475984083360   T   T   T
  0.1699912772849359  0.5003605084296368  0.3030360357213411   T   T   T
  0.3287791587558502  0.8309072813550884  0.2063787679614677   T   T   T
  0.3314615263532872  0.8313478101373732  0.3600534996778109   T   T   T
  0.3305367956294418  0.8301916887419338  0.3030320030089015   T   T   T
  0.0001290581398905  0.6704573939860836  0.2069645217406801   T   T   T
  0.9999553576314355  0.6678287706662616  0.3602747053384832   T   T   T
  0.0000155905401655  0.6673976916229023  0.3033604108729477   T   T   T
  0.3316920240850862  0.5004342947255154  0.2827721532989855   T   T   T
  0.3321987410397753  0.5010989452458432  0.2256310729953839   T   T   T
  0.3293507042543737  0.5003380992195972  0.3794523068610829   T   T   T
  0.1688071186484521  0.6684066262280268  0.2827957225500271   T   T   T
  0.1689093764188598  0.6678213747320356  0.2256438645083492   T   T   T
  0.1709706867657417  0.6706367135842939  0.3794156752613347   T   T   T
  0.0000172792032416  0.8307903114540380  0.2842242613991885   T   T   T
  0.9998670733451576  0.8295892788373962  0.2274432690014905   T   T   T
  0.0000225796936704  0.8287698529855803  0.3793715581961479   T   T   T
  0.6712300811450476  0.5021091048731350  0.2063440091647877   T   T   T
  0.6685521835586172  0.4998166087919174  0.3600302904788535   T   T   T
  0.6695829928558155  0.4996319628044006  0.3030141212110991   T   T   T
  0.8326694566646822  0.8326791803462825  0.2082072075691173   T   T   T
  0.8311939728044635  0.8311950440854687  0.3604710672575493   T   T   T
  0.8300779814897083  0.8300862950304619  0.3036160925876814   T   T   T
  0.5020409353707436  0.6712944308103417  0.2063604435391966   T   T   T
  0.4998230325548647  0.6685450335109451  0.3600485816123680   T   T   T
  0.4996420878783994  0.6695624546854759  0.3030414614915031   T   T   T
  0.8313161758139742  0.4997264445723886  0.2827455221277546   T   T   T
  0.8312034564086730  0.4990500941384965  0.2255854395948447   T   T   T
  0.8289860841582168  0.4996943002766159  0.3794328385822467   T   T   T
  0.6683849275576463  0.6683950274805213  0.2833982486989441   T   T   T
  0.6699528209084065  0.6700089435366721  0.2263239453585513   T   T   T
  0.6699496473697550  0.6699314177344107  0.3794439894027875   T   T   T
  0.4997126771900113  0.8312934456682655  0.2827884181931140   T   T   T
  0.4989777953084626  0.8311917740617645  0.2256454181071206   T   T   T
  0.4997076414990786  0.8289973290380388  0.3794451026895800   T   T   T
 
  0.00000000E+00  0.00000000E+00  0.00000000E+00
  0.00000000E+00  0.00000000E+00  0.00000000E+00
  0.00000000E+00  0.00000000E+00  0.00000000E+00
  0.00000000E+00  0.00000000E+00  0.00000000E+00
  0.00000000E+00  0.00000000E+00  0.00000000E+00
  0.00000000E+00  0.00000000E+00  0.00000000E+00
  0.00000000E+00  0.00000000E+00  0.00000000E+00
  0.00000000E+00  0.00000000E+00  0.00000000E+00
  0.00000000E+00  0.00000000E+00  0.00000000E+00
  0.00000000E+00  0.00000000E+00  0.00000000E+00
  0.00000000E+00  0.00000000E+00  0.00000000E+00
  0.00000000E+00  0.00000000E+00  0.00000000E+00
  0.00000000E+00  0.00000000E+00  0.00000000E+00
  0.00000000E+00  0.00000000E+00  0.00000000E+00
  0.00000000E+00  0.00000000E+00  0.00000000E+00
  0.00000000E+00  0.00000000E+00  0.00000000E+00
  0.00000000E+00  0.00000000E+00  0.00000000E+00
  0.00000000E+00  0.00000000E+00  0.00000000E+00
  0.00000000E+00  0.00000000E+00  0.00000000E+00
  0.00000000E+00  0.00000000E+00  0.00000000E+00
  0.00000000E+00  0.00000000E+00  0.00000000E+00
  0.00000000E+00  0.00000000E+00  0.00000000E+00
  0.00000000E+00  0.00000000E+00  0.00000000E+00
  0.00000000E+00  0.00000000E+00  0.00000000E+00
  0.00000000E+00  0.00000000E+00  0.00000000E+00
  0.00000000E+00  0.00000000E+00  0.00000000E+00
  0.00000000E+00  0.00000000E+00  0.00000000E+00
  0.00000000E+00  0.00000000E+00  0.00000000E+00
  0.00000000E+00  0.00000000E+00  0.00000000E+00
  0.00000000E+00  0.00000000E+00  0.00000000E+00
  0.00000000E+00  0.00000000E+00  0.00000000E+00
  0.00000000E+00  0.00000000E+00  0.00000000E+00
  0.00000000E+00  0.00000000E+00  0.00000000E+00
  0.00000000E+00  0.00000000E+00  0.00000000E+00
  0.00000000E+00  0.00000000E+00  0.00000000E+00
  0.00000000E+00  0.00000000E+00  0.00000000E+00
  0.00000000E+00  0.00000000E+00  0.00000000E+00
  0.00000000E+00  0.00000000E+00  0.00000000E+00
  0.00000000E+00  0.00000000E+00  0.00000000E+00
  0.00000000E+00  0.00000000E+00  0.00000000E+00
  0.00000000E+00  0.00000000E+00  0.00000000E+00
  0.00000000E+00  0.00000000E+00  0.00000000E+00
  0.00000000E+00  0.00000000E+00  0.00000000E+00
  0.00000000E+00  0.00000000E+00  0.00000000E+00
  0.00000000E+00  0.00000000E+00  0.00000000E+00
  0.00000000E+00  0.00000000E+00  0.00000000E+00
  0.00000000E+00  0.00000000E+00  0.00000000E+00
  0.00000000E+00  0.00000000E+00  0.00000000E+00
  0.00000000E+00  0.00000000E+00  0.00000000E+00
  0.00000000E+00  0.00000000E+00  0.00000000E+00
  0.00000000E+00  0.00000000E+00  0.00000000E+00
  0.00000000E+00  0.00000000E+00  0.00000000E+00
  0.00000000E+00  0.00000000E+00  0.00000000E+00
  0.00000000E+00  0.00000000E+00  0.00000000E+00
  0.00000000E+00  0.00000000E+00  0.00000000E+00
  0.00000000E+00  0.00000000E+00  0.00000000E+00
  0.00000000E+00  0.00000000E+00  0.00000000E+00
  0.00000000E+00  0.00000000E+00  0.00000000E+00
  0.00000000E+00  0.00000000E+00  0.00000000E+00
  0.00000000E+00  0.00000000E+00  0.00000000E+00
  0.00000000E+00  0.00000000E+00  0.00000000E+00
  0.00000000E+00  0.00000000E+00  0.00000000E+00
  0.00000000E+00  0.00000000E+00  0.00000000E+00
  0.00000000E+00  0.00000000E+00  0.00000000E+00
  0.00000000E+00  0.00000000E+00  0.00000000E+00
  0.00000000E+00  0.00000000E+00  0.00000000E+00
  0.00000000E+00  0.00000000E+00  0.00000000E+00
  0.00000000E+00  0.00000000E+00  0.00000000E+00
  0.00000000E+00  0.00000000E+00  0.00000000E+00
  0.00000000E+00  0.00000000E+00  0.00000000E+00
  0.00000000E+00  0.00000000E+00  0.00000000E+00
  0.00000000E+00  0.00000000E+00  0.00000000E+00
  0.00000000E+00  0.00000000E+00  0.00000000E+00
  0.00000000E+00  0.00000000E+00  0.00000000E+00
  0.00000000E+00  0.00000000E+00  0.00000000E+00
  0.00000000E+00  0.00000000E+00  0.00000000E+00
  0.00000000E+00  0.00000000E+00  0.00000000E+00
  0.00000000E+00  0.00000000E+00  0.00000000E+00
  0.00000000E+00  0.00000000E+00  0.00000000E+00
  0.00000000E+00  0.00000000E+00  0.00000000E+00
  0.00000000E+00  0.00000000E+00  0.00000000E+00
  0.00000000E+00  0.00000000E+00  0.00000000E+00
  0.00000000E+00  0.00000000E+00  0.00000000E+00
  0.00000000E+00  0.00000000E+00  0.00000000E+00
  0.00000000E+00  0.00000000E+00  0.00000000E+00
  0.00000000E+00  0.00000000E+00  0.00000000E+00
  0.00000000E+00  0.00000000E+00  0.00000000E+00
  0.00000000E+00  0.00000000E+00  0.00000000E+00
  0.00000000E+00  0.00000000E+00  0.00000000E+00
  0.00000000E+00  0.00000000E+00  0.00000000E+00
  0.00000000E+00  0.00000000E+00  0.00000000E+00
  0.00000000E+00  0.00000000E+00  0.00000000E+00
  0.00000000E+00  0.00000000E+00  0.00000000E+00
  0.00000000E+00  0.00000000E+00  0.00000000E+00
  0.00000000E+00  0.00000000E+00  0.00000000E+00
  0.00000000E+00  0.00000000E+00  0.00000000E+00
  0.00000000E+00  0.00000000E+00  0.00000000E+00
  0.00000000E+00  0.00000000E+00  0.00000000E+00
  0.00000000E+00  0.00000000E+00  0.00000000E+00
  0.00000000E+00  0.00000000E+00  0.00000000E+00
  0.00000000E+00  0.00000000E+00  0.00000000E+00
  0.00000000E+00  0.00000000E+00  0.00000000E+00
  0.00000000E+00  0.00000000E+00  0.00000000E+00
  0.00000000E+00  0.00000000E+00  0.00000000E+00
  0.00000000E+00  0.00000000E+00  0.00000000E+00
  0.00000000E+00  0.00000000E+00  0.00000000E+00
  0.00000000E+00  0.00000000E+00  0.00000000E+00
  0.00000000E+00  0.00000000E+00  0.00000000E+00
  0.00000000E+00  0.00000000E+00  0.00000000E+00
  0.00000000E+00  0.00000000E+00  0.00000000E+00
  0.00000000E+00  0.00000000E+00  0.00000000E+00
  0.00000000E+00  0.00000000E+00  0.00000000E+00
  0.00000000E+00  0.00000000E+00  0.00000000E+00
  0.00000000E+00  0.00000000E+00  0.00000000E+00
  0.00000000E+00  0.00000000E+00  0.00000000E+00
  0.00000000E+00  0.00000000E+00  0.00000000E+00
  0.00000000E+00  0.00000000E+00  0.00000000E+00
  0.00000000E+00  0.00000000E+00  0.00000000E+00
  0.00000000E+00  0.00000000E+00  0.00000000E+00
  0.00000000E+00  0.00000000E+00  0.00000000E+00
  0.00000000E+00  0.00000000E+00  0.00000000E+00
  0.00000000E+00  0.00000000E+00  0.00000000E+00
  0.00000000E+00  0.00000000E+00  0.00000000E+00
  0.00000000E+00  0.00000000E+00  0.00000000E+00
  0.00000000E+00  0.00000000E+00  0.00000000E+00
  0.00000000E+00  0.00000000E+00  0.00000000E+00
  0.00000000E+00  0.00000000E+00  0.00000000E+00
  0.00000000E+00  0.00000000E+00  0.00000000E+00
  0.00000000E+00  0.00000000E+00  0.00000000E+00
  0.00000000E+00  0.00000000E+00  0.00000000E+00
  0.00000000E+00  0.00000000E+00  0.00000000E+00
  0.00000000E+00  0.00000000E+00  0.00000000E+00
  0.00000000E+00  0.00000000E+00  0.00000000E+00
  0.00000000E+00  0.00000000E+00  0.00000000E+00