bilayer_3                               
   1.00000000000000     
    14.6976995467999991    0.0000000000000000    0.0000000000000000
    -7.3488497733999996   12.7285811846999994    0.0000000000000000
     0.0000000000000000    0.0000000000000000   49.2004013061999999
   H    O 
   144    72
Selective dynamics
Direct
  0.1682509924992488  0.0629829542690552  0.2910701591245796
  0.3947319617801946  0.3317490224273073  0.2910701591245796
  0.1052551474037227  0.1681581416821620  0.2110257542809517
  0.1050232695291594  0.1681767041688874  0.3698400950665857
  0.0629029943205319  0.3947448600964181  0.2110257542809517
  0.0631534346818204  0.3949767379709814  0.3698400950665857
  0.1681581267362864  0.1052551473396033  0.2110257542809517
  0.1681766892230117  0.1050232694650401  0.3698400950665857
  0.3947448302589452  0.0629029942640011  0.2110257542809517
  0.3949767081335084  0.0631534346252896  0.3698400950665857
  0.0629829616618900  0.1682510073992660  0.2910701591245796
  0.3317490224103609  0.3947319617693304  0.2910701591245796
  0.1767397847958033 -0.0000000000000000  0.1780218502772555
  0.1739530031403305 -0.0000000000000000  0.3367524656532453
  0.2374053432914471 -0.0000000000000000  0.2056372596620497
  0.2359233410487596 -0.0000000000000000  0.3643965861469166
  0.3232602003082079  0.3232602002716789  0.1780218502772555
  0.3260469819636812  0.3260469819271522  0.3367524656532453
  0.2625946716178638  0.2625946715860599  0.2056372596620497
  0.2640766738605519  0.2640766738287480  0.3643965861469166
  0.9999999999942517  0.1767397848523483  0.1780218502772555
  0.9999999999942517  0.1739530031968755  0.3367524656532453
  0.9999999999769926  0.2374053433134739  0.2056372596620497
  0.9999999999769926  0.2359233410707864  0.3643965861469166
  0.3261496067247848 -0.0000000000000000  0.2579663249344121
  0.2644907683351175 -0.0000000000000000  0.2855328052167000
  0.1738503633972912  0.1738503783154912  0.2579663249344121
  0.2355092316919401  0.2355092316781769  0.2855328052167000
  0.9999999999685727  0.3261496067299718  0.2579663249344121
  0.0000000000188862  0.2644907683728899  0.2855328052167000
  0.6682509775717410  0.0629829542690552  0.2910701591245796
  0.8947319617529803  0.3317490224273073  0.2910701591245796
  0.4370170606373643  0.1052680456666912  0.2910701591245796
  0.6052550802911850  0.1681581416821620  0.2110257542809517
  0.6050232024166220  0.1681767041688874  0.3698400950665857
  0.5629029421763155  0.3947448600964181  0.2110257542809517
  0.5631533825376041  0.3949767379709814  0.3698400950665857
  0.4370970280713844  0.3318418881444115  0.2110257542809517
  0.4368465877100957  0.3318233256576857  0.3698400950665857
  0.6681581416774013  0.1052551473396033  0.2110257542809517
  0.6681767041641264  0.1050232694650401  0.3698400950665857
  0.8947448600323130  0.0629029942640011  0.2110257542809517
  0.8949767379068760  0.0631534346252896  0.3698400950665857
  0.5629829393182560  0.1682510073992660  0.2910701591245796
  0.8317489628500180  0.3947319617693305  0.2910701591245796
  0.6767397699363297 -0.0000000000000000  0.1780218502772555
  0.6739529882808573 -0.0000000000000000  0.3367524656532453
  0.7374053880331433 -0.0000000000000000  0.2056372596620497
  0.7359233857904565 -0.0000000000000000  0.3643965861469166
  0.8232601704804129  0.3232602002716789  0.1780218502772555
  0.8260469521358853  0.3260469819271522  0.3367524656532453
  0.7625946715906506  0.2625946715860599  0.2056372596620497
  0.7640766738333374  0.2640766738287480  0.3643965861469166
  0.5000000000350795  0.1767397848523483  0.1780218502772555
  0.5000000000350795  0.1739530031968755  0.3367524656532453
  0.5000000000178204  0.2374053433134739  0.2056372596620497
  0.5000000000178204  0.2359233410707864  0.3643965861469166
  0.8261496067656120 -0.0000000000000000  0.2579663249344121
  0.7644907683759377 -0.0000000000000000  0.2855328052167000
  0.6738503336375308  0.1738503783154912  0.2579663249344121
  0.7355092316647267  0.2355092316781769  0.2855328052167000
  0.5000000000094005  0.3261496067299718  0.2579663249344121
  0.4999999999916724  0.2644907683728899  0.2855328052167000
  0.1682510074002323  0.5629829989441105  0.2910701591245796
  0.3947319915466133  0.8317490223998160  0.2910701591245796
  0.3318418583555681  0.4370969982449888  0.2110257542809517
  0.3318232958688423  0.4368465578837001  0.3698400950665857
  0.1052551622698541  0.6681581416546710  0.2110257542809517
  0.1050232843952909  0.6681767041413962  0.3698400950665857
  0.0629030092008671  0.8947449196985050  0.2110257542809517
  0.0631534495621556  0.8949767975730680  0.3698400950665857
  0.1681581565523151  0.6052551399271505  0.2110257542809517
  0.1681767190390405  0.6050232620525875  0.3698400950665857
  0.3947448899229487  0.5629030017785800  0.2110257542809517
  0.3949767677975120  0.5631534421398686  0.3698400950665857
  0.0629829691386399  0.6682510372258396  0.2910701591245796
  0.3317490223904088  0.8947320213714167  0.2910701591245796
  0.1052680307717899  0.4370170308549726  0.2910701591245796
  0.1767397848296820  0.4999999999725020  0.1780218502772555
  0.1739530031742092  0.4999999999725020  0.3367524656532453
  0.2374053432572913  0.4999999999725020  0.2056372596620497
  0.2359233410146039  0.4999999999725020  0.3643965861469166
  0.3232602301013714  0.8232602300982595  0.1780218502772555
  0.3260470117568447  0.8260470117537320  0.3367524656532453
  0.2625946716229868  0.7625946716371272  0.2056372596620497
  0.2640766738656749  0.7640766738798140  0.3643965861469166
  0.9999999999949480  0.6767398295273960  0.1780218502772555
  0.9999999999949480  0.6739530478719236  0.3367524656532453
  0.9999999999776890  0.7374053879885283  0.2056372596620497
  0.9999999999776890  0.7359233857458415  0.3643965861469166
  0.3261496365592451  0.4999999999725020  0.2579663249344121
  0.2644907981015432  0.4999999999725020  0.2855328052167000
  0.1738503932111031  0.6738503932150328  0.2579663249344121
  0.2355092316719881  0.7355092912802641  0.2855328052167000
  0.0000000000166622  0.8261496663320580  0.2579663249344121
  0.9999999999847233  0.7644907683453914  0.2855328052167000
  0.6682510371736005  0.5629829989441105  0.2910701591245796
  0.8947319617188174  0.8317490223998160  0.2910701591245796
  0.4370170904533930  0.6052680382542388  0.2910701591245796
  0.8318418583283541  0.4370969982449888  0.2110257542809517
  0.8318232958416290  0.4368465578837001  0.3698400950665857
  0.6052551399262268  0.6681581416546710  0.2110257542809517
  0.6050232620516638  0.6681767041413962  0.3698400950665857
  0.5629030017575266  0.8947449196985050  0.2110257542809517
  0.5631534421188152  0.8949767975730680  0.3698400950665857
  0.4370970578645550  0.8318419179709845  0.2110257542809517
  0.4368466175032663  0.8318233554842593  0.3698400950665857
  0.6681581416928414  0.6052551399271505  0.2110257542809517
  0.6681767041795665  0.6050232620525875  0.3698400950665857
  0.8947449196963165  0.5629030017785800  0.2110257542809517
  0.8949767975708796  0.5631534421398686  0.3698400950665857
  0.5629829989800427  0.6682510372258396  0.2910701591245796
  0.8317490224312291  0.8947320213714167  0.2910701591245796
  0.6052679786275814  0.4370170308549726  0.2910701591245796
  0.6767397699021739  0.4999999999725020  0.1780218502772555
  0.6739529882467015  0.4999999999725020  0.3367524656532453
  0.7374053879989875  0.4999999999725020  0.2056372596620497
  0.7359233857563007  0.4999999999725020  0.3643965861469166
  0.8232602300741579  0.8232602300982595  0.1780218502772555
  0.8260470117296304  0.8260470117537320  0.3367524656532453
  0.7625946715957737  0.7625946716371272  0.2056372596620497
  0.7640766738384605  0.7640766738798140  0.3643965861469166
  0.4999999999677343  0.6767398295273960  0.1780218502772555
  0.4999999999677343  0.6739530478719236  0.3367524656532453
  0.5000000000185167  0.7374053879885283  0.2056372596620497
  0.5000000000185167  0.7359233857458415  0.3643965861469166
  0.8261496067314491  0.4999999999725020  0.2579663249344121
  0.7644907683417819  0.4999999999725020  0.2855328052167000
  0.6738503932519242  0.6738503932150328  0.2579663249344121
  0.7355092912459378  0.7355092912802641  0.2855328052167000
  0.4999999999894484  0.8261496663320580  0.2579663249344121
  0.5000000000255511  0.7644907683453914  0.2855328052167000
  0.9370170010089865  0.1052680456666912  0.2910701591245796
  0.9370969982435889  0.3318418881444115  0.2110257542809517
  0.9368465578823003  0.3318233256576857  0.3698400950665857
  0.9370170606936313  0.6052680382542388  0.2910701591245796
  0.9370969982361780  0.8318419179709845  0.2110257542809517
  0.9368465578748894  0.8318233554842593  0.3698400950665857
  0.3318418881219867  0.9370969982174907  0.2110257542809517
  0.3318233256352610  0.9368465578562021  0.3698400950665857
  0.1052680531488341  0.9370170606815450  0.2910701591245796
  0.8318418582941912  0.9370969982174907  0.2110257542809517
  0.8318232958074661  0.9368465578562021  0.3698400950665857
  0.6052680382893680  0.9370170606815450  0.2910701591245796
  0.1710544297588528 -0.0000000000000000  0.1977552533049992
  0.1695223333877179 -0.0000000000000000  0.3566144958724741
  0.1712052632878623 -0.0000000000000000  0.2975596291139709
  0.3289455553840395  0.3289455553863985  0.1977552533049992
  0.3304776517551748  0.3304776517575338  0.3566144958724741
  0.3287947218066212  0.3287947218286054  0.2975596291139709
  0.0000000000234053  0.1710544297376289  0.1977552533049992
  0.0000000000234053  0.1695223333664940  0.3566144958724740
  0.0000000000037801  0.1712052632954225  0.2975596291139709
  0.3305787000668582 -0.0000000000000000  0.2778154963446390
  0.3294492030276549 -0.0000000000000000  0.2177970737084411
  0.3282109941982134 -0.0000000000000000  0.3758494393630726
  0.1694213148380758  0.1694213148019021  0.2778154963446390
  0.1705507671464113  0.1705507671482658  0.2177970737084411
  0.1717889759758533  0.1717889759777078  0.3758494393630726
  0.9999999999939035  0.3305786703221324  0.2778154963446390
  0.9999999999639826  0.3294492328242361  0.2177970737084411
  0.9999999999639826  0.3282110239947946  0.3758494393630726
  0.6710544446319269 -0.0000000000000000  0.1977552533049992
  0.6695223482607907 -0.0000000000000000  0.3566144958724741
  0.6712053079615169 -0.0000000000000000  0.2975596291139709
  0.8289455553568252  0.3289455553863985  0.1977552533049992
  0.8304776517279614  0.3304776517575338  0.3566144958724741
  0.8287946920468604  0.3287947218286054  0.2975596291139709
  0.4999999999961915  0.1710544297376289  0.1977552533049992
  0.4999999999961915  0.1695223333664940  0.3566144958724741
  0.5000000000446008  0.1712052632954225  0.2975596291139709
  0.8305786405065161 -0.0000000000000000  0.2778154963446390
  0.8294492030684752 -0.0000000000000000  0.2177970737084411
  0.8282109942390341 -0.0000000000000000  0.3758494393630726
  0.6694212999105675  0.1694213148019021  0.2778154963446390
  0.6705507969197795  0.1705507671482658  0.2177970737084411
  0.6717890057492206  0.1717889759777078  0.3758494393630726
  0.5000000000347313  0.3305786703221324  0.2778154963446390
  0.5000000000048033  0.3294492328242361  0.2177970737084411
  0.5000000000048033  0.3282110239947946  0.3758494393630726
  0.1710544297246900  0.4999999999725020  0.1977552533049992
  0.1695223333535550  0.4999999999725020  0.3566144958724741
  0.1712052632536994  0.4999999999725020  0.2975596291139709
  0.3289456149652505  0.8289456149884848  0.1977552533049992
  0.3304777113363859  0.8304777113596210  0.3566144958724741
  0.3287947218530338  0.8287946920256010  0.2975596291139709
  0.9999999999686011  0.6710544446371707  0.1977552533049992
  0.9999999999686011  0.6695223482660345  0.3566144958724740
  0.0000000000044764  0.6712053079704697  0.2975596291139709
  0.3305787001007369  0.4999999999725020  0.2778154963446390
  0.3294492328621151  0.4999999999725020  0.2177970737084411
  0.3282110240326736  0.4999999999725020  0.3758494393630726
  0.1694213296710249  0.6694213594769496  0.2778154963446390
  0.1705507522387060  0.6705507969748465  0.2177970737084411
  0.1717889610681480  0.6717890058042877  0.3758494393630726
  0.0000000000152482  0.8305787000701412  0.2778154963446390
  0.0000000000103952  0.8294492030212313  0.2177970737084411
  0.0000000000103952  0.8282109941917901  0.3758494393630726
  0.6710543849966080  0.4999999999725020  0.1977552533049992
  0.6695222886254718  0.4999999999725020  0.3566144958724741
  0.6712053079273540  0.4999999999725020  0.2975596291139709
  0.8289455553368732  0.8289456149884848  0.1977552533049992
  0.8304776517080094  0.8304777113596210  0.3566144958724741
  0.8287946920252386  0.8287946920256010  0.2975596291139709
  0.5000000000094218  0.6710544446371707  0.1977552533049992
  0.5000000000094218  0.6695223482660345  0.3566144958724741
  0.4999999999772626  0.6712053079704697  0.2975596291139709
  0.8305786404723603  0.4999999999725020  0.2778154963446390
  0.8294492030343124  0.4999999999725020  0.2177970737084411
  0.8282109942048712  0.4999999999725020  0.3758494393630726
  0.6694212999112639  0.6694213594769496  0.2778154963446390
  0.6705507969804030  0.6705507969748465  0.2177970737084411
  0.6717890058098441  0.6717890058042877  0.3758494393630726
  0.5000000595891976  0.8305787000701412  0.2778154963446390
  0.4999999999831815  0.8294492030212313  0.2177970737084411
  0.4999999999831815  0.8282109941917901  0.3758494393630726
 
  0.00000000E+00  0.00000000E+00  0.00000000E+00
  0.00000000E+00  0.00000000E+00  0.00000000E+00
  0.00000000E+00  0.00000000E+00  0.00000000E+00
  0.00000000E+00  0.00000000E+00  0.00000000E+00
  0.00000000E+00  0.00000000E+00  0.00000000E+00
  0.00000000E+00  0.00000000E+00  0.00000000E+00
  0.00000000E+00  0.00000000E+00  0.00000000E+00
  0.00000000E+00  0.00000000E+00  0.00000000E+00
  0.00000000E+00  0.00000000E+00  0.00000000E+00
  0.00000000E+00  0.00000000E+00  0.00000000E+00
  0.00000000E+00  0.00000000E+00  0.00000000E+00
  0.00000000E+00  0.00000000E+00  0.00000000E+00
  0.00000000E+00  0.00000000E+00  0.00000000E+00
  0.00000000E+00  0.00000000E+00  0.00000000E+00
  0.00000000E+00  0.00000000E+00  0.00000000E+00
  0.00000000E+00  0.00000000E+00  0.00000000E+00
  0.00000000E+00  0.00000000E+00  0.00000000E+00
  0.00000000E+00  0.00000000E+00  0.00000000E+00
  0.00000000E+00  0.00000000E+00  0.00000000E+00
  0.00000000E+00  0.00000000E+00  0.00000000E+00
  0.00000000E+00  0.00000000E+00  0.00000000E+00
  0.00000000E+00  0.00000000E+00  0.00000000E+00
  0.00000000E+00  0.00000000E+00  0.00000000E+00
  0.00000000E+00  0.00000000E+00  0.00000000E+00
  0.00000000E+00  0.00000000E+00  0.00000000E+00
  0.00000000E+00  0.00000000E+00  0.00000000E+00
  0.00000000E+00  0.00000000E+00  0.00000000E+00
  0.00000000E+00  0.00000000E+00  0.00000000E+00
  0.00000000E+00  0.00000000E+00  0.00000000E+00
  0.00000000E+00  0.00000000E+00  0.00000000E+00
  0.00000000E+00  0.00000000E+00  0.00000000E+00
  0.00000000E+00  0.00000000E+00  0.00000000E+00
  0.00000000E+00  0.00000000E+00  0.00000000E+00
  0.00000000E+00  0.00000000E+00  0.00000000E+00
  0.00000000E+00  0.00000000E+00  0.00000000E+00
  0.00000000E+00  0.00000000E+00  0.00000000E+00
  0.00000000E+00  0.00000000E+00  0.00000000E+00
  0.00000000E+00  0.00000000E+00  0.00000000E+00
  0.00000000E+00  0.00000000E+00  0.00000000E+00
  0.00000000E+00  0.00000000E+00  0.00000000E+00
  0.00000000E+00  0.00000000E+00  0.00000000E+00
  0.00000000E+00  0.00000000E+00  0.00000000E+00
  0.00000000E+00  0.00000000E+00  0.00000000E+00
  0.00000000E+00  0.00000000E+00  0.00000000E+00
  0.00000000E+00  0.00000000E+00  0.00000000E+00
  0.00000000E+00  0.00000000E+00  0.00000000E+00
  0.00000000E+00  0.00000000E+00  0.00000000E+00
  0.00000000E+00  0.00000000E+00  0.00000000E+00
  0.00000000E+00  0.00000000E+00  0.00000000E+00
  0.00000000E+00  0.00000000E+00  0.00000000E+00
  0.00000000E+00  0.00000000E+00  0.00000000E+00
  0.00000000E+00  0.00000000E+00  0.00000000E+00
  0.00000000E+00  0.00000000E+00  0.00000000E+00
  0.00000000E+00  0.00000000E+00  0.00000000E+00
  0.00000000E+00  0.00000000E+00  0.00000000E+00
  0.00000000E+00  0.00000000E+00  0.00000000E+00
  0.00000000E+00  0.00000000E+00  0.00000000E+00
  0.00000000E+00  0.00000000E+00  0.00000000E+00
  0.00000000E+00  0.00000000E+00  0.00000000E+00
  0.00000000E+00  0.00000000E+00  0.00000000E+00
  0.00000000E+00  0.00000000E+00  0.00000000E+00
  0.00000000E+00  0.00000000E+00  0.00000000E+00
  0.00000000E+00  0.00000000E+00  0.00000000E+00
  0.00000000E+00  0.00000000E+00  0.00000000E+00
  0.00000000E+00  0.00000000E+00  0.00000000E+00
  0.00000000E+00  0.00000000E+00  0.00000000E+00
  0.00000000E+00  0.00000000E+00  0.00000000E+00
  0.00000000E+00  0.00000000E+00  0.00000000E+00
  0.00000000E+00  0.00000000E+00  0.00000000E+00
  0.00000000E+00  0.00000000E+00  0.00000000E+00
  0.00000000E+00  0.00000000E+00  0.00000000E+00
  0.00000000E+00  0.00000000E+00  0.00000000E+00
  0.00000000E+00  0.00000000E+00  0.00000000E+00
  0.00000000E+00  0.00000000E+00  0.00000000E+00
  0.00000000E+00  0.00000000E+00  0.00000000E+00
  0.00000000E+00  0.00000000E+00  0.00000000E+00
  0.00000000E+00  0.00000000E+00  0.00000000E+00
  0.00000000E+00  0.00000000E+00  0.00000000E+00
  0.00000000E+00  0.00000000E+00  0.00000000E+00
  0.00000000E+00  0.00000000E+00  0.00000000E+00
  0.00000000E+00  0.00000000E+00  0.00000000E+00
  0.00000000E+00  0.00000000E+00  0.00000000E+00
  0.00000000E+00  0.00000000E+00  0.00000000E+00
  0.00000000E+00  0.00000000E+00  0.00000000E+00
  0.00000000E+00  0.00000000E+00  0.00000000E+00
  0.00000000E+00  0.00000000E+00  0.00000000E+00
  0.00000000E+00  0.00000000E+00  0.00000000E+00
  0.00000000E+00  0.00000000E+00  0.00000000E+00
  0.00000000E+00  0.00000000E+00  0.00000000E+00
  0.00000000E+00  0.00000000E+00  0.00000000E+00
  0.00000000E+00  0.00000000E+00  0.00000000E+00
  0.00000000E+00  0.00000000E+00  0.00000000E+00
  0.00000000E+00  0.00000000E+00  0.00000000E+00
  0.00000000E+00  0.00000000E+00  0.00000000E+00
  0.00000000E+00  0.00000000E+00  0.00000000E+00
  0.00000000E+00  0.00000000E+00  0.00000000E+00
  0.00000000E+00  0.00000000E+00  0.00000000E+00
  0.00000000E+00  0.00000000E+00  0.00000000E+00
  0.00000000E+00  0.00000000E+00  0.00000000E+00
  0.00000000E+00  0.00000000E+00  0.00000000E+00
  0.00000000E+00  0.00000000E+00  0.00000000E+00
  0.00000000E+00  0.00000000E+00  0.00000000E+00
  0.00000000E+00  0.00000000E+00  0.00000000E+00
  0.00000000E+00  0.00000000E+00  0.00000000E+00
  0.00000000E+00  0.00000000E+00  0.00000000E+00
  0.00000000E+00  0.00000000E+00  0.00000000E+00
  0.00000000E+00  0.00000000E+00  0.00000000E+00
  0.00000000E+00  0.00000000E+00  0.00000000E+00
  0.00000000E+00  0.00000000E+00  0.00000000E+00
  0.00000000E+00  0.00000000E+00  0.00000000E+00
  0.00000000E+00  0.00000000E+00  0.00000000E+00
  0.00000000E+00  0.00000000E+00  0.00000000E+00
  0.00000000E+00  0.00000000E+00  0.00000000E+00
  0.00000000E+00  0.00000000E+00  0.00000000E+00
  0.00000000E+00  0.00000000E+00  0.00000000E+00
  0.00000000E+00  0.00000000E+00  0.00000000E+00
  0.00000000E+00  0.00000000E+00  0.00000000E+00
  0.00000000E+00  0.00000000E+00  0.00000000E+00
  0.00000000E+00  0.00000000E+00  0.00000000E+00
  0.00000000E+00  0.00000000E+00  0.00000000E+00
  0.00000000E+00  0.00000000E+00  0.00000000E+00
  0.00000000E+00  0.00000000E+00  0.00000000E+00
  0.00000000E+00  0.00000000E+00  0.00000000E+00
  0.00000000E+00  0.00000000E+00  0.00000000E+00
  0.00000000E+00  0.00000000E+00  0.00000000E+00
  0.00000000E+00  0.00000000E+00  0.00000000E+00
  0.00000000E+00  0.00000000E+00  0.00000000E+00
  0.00000000E+00  0.00000000E+00  0.00000000E+00
  0.00000000E+00  0.00000000E+00  0.00000000E+00
  0.00000000E+00  0.00000000E+00  0.00000000E+00
  0.00000000E+00  0.00000000E+00  0.00000000E+00
  0.00000000E+00  0.00000000E+00  0.00000000E+00
  0.00000000E+00  0.00000000E+00  0.00000000E+00
  0.00000000E+00  0.00000000E+00  0.00000000E+00
  0.00000000E+00  0.00000000E+00  0.00000000E+00
  0.00000000E+00  0.00000000E+00  0.00000000E+00
  0.00000000E+00  0.00000000E+00  0.00000000E+00
  0.00000000E+00  0.00000000E+00  0.00000000E+00
  0.00000000E+00  0.00000000E+00  0.00000000E+00
  0.00000000E+00  0.00000000E+00  0.00000000E+00
  0.00000000E+00  0.00000000E+00  0.00000000E+00
  0.00000000E+00  0.00000000E+00  0.00000000E+00
  0.00000000E+00  0.00000000E+00  0.00000000E+00
  0.00000000E+00  0.00000000E+00  0.00000000E+00
  0.00000000E+00  0.00000000E+00  0.00000000E+00
  0.00000000E+00  0.00000000E+00  0.00000000E+00
  0.00000000E+00  0.00000000E+00  0.00000000E+00
  0.00000000E+00  0.00000000E+00  0.00000000E+00
  0.00000000E+00  0.00000000E+00  0.00000000E+00
  0.00000000E+00  0.00000000E+00  0.00000000E+00
  0.00000000E+00  0.00000000E+00  0.00000000E+00
  0.00000000E+00  0.00000000E+00  0.00000000E+00
  0.00000000E+00  0.00000000E+00  0.00000000E+00
  0.00000000E+00  0.00000000E+00  0.00000000E+00
  0.00000000E+00  0.00000000E+00  0.00000000E+00
  0.00000000E+00  0.00000000E+00  0.00000000E+00
  0.00000000E+00  0.00000000E+00  0.00000000E+00
  0.00000000E+00  0.00000000E+00  0.00000000E+00
  0.00000000E+00  0.00000000E+00  0.00000000E+00
  0.00000000E+00  0.00000000E+00  0.00000000E+00
  0.00000000E+00  0.00000000E+00  0.00000000E+00
  0.00000000E+00  0.00000000E+00  0.00000000E+00
  0.00000000E+00  0.00000000E+00  0.00000000E+00
  0.00000000E+00  0.00000000E+00  0.00000000E+00
  0.00000000E+00  0.00000000E+00  0.00000000E+00
  0.00000000E+00  0.00000000E+00  0.00000000E+00
  0.00000000E+00  0.00000000E+00  0.00000000E+00
  0.00000000E+00  0.00000000E+00  0.00000000E+00
  0.00000000E+00  0.00000000E+00  0.00000000E+00
  0.00000000E+00  0.00000000E+00  0.00000000E+00
  0.00000000E+00  0.00000000E+00  0.00000000E+00
  0.00000000E+00  0.00000000E+00  0.00000000E+00
  0.00000000E+00  0.00000000E+00  0.00000000E+00
  0.00000000E+00  0.00000000E+00  0.00000000E+00
  0.00000000E+00  0.00000000E+00  0.00000000E+00
  0.00000000E+00  0.00000000E+00  0.00000000E+00
  0.00000000E+00  0.00000000E+00  0.00000000E+00
  0.00000000E+00  0.00000000E+00  0.00000000E+00
  0.00000000E+00  0.00000000E+00  0.00000000E+00
  0.00000000E+00  0.00000000E+00  0.00000000E+00
  0.00000000E+00  0.00000000E+00  0.00000000E+00
  0.00000000E+00  0.00000000E+00  0.00000000E+00
  0.00000000E+00  0.00000000E+00  0.00000000E+00
  0.00000000E+00  0.00000000E+00  0.00000000E+00
  0.00000000E+00  0.00000000E+00  0.00000000E+00
  0.00000000E+00  0.00000000E+00  0.00000000E+00
  0.00000000E+00  0.00000000E+00  0.00000000E+00
  0.00000000E+00  0.00000000E+00  0.00000000E+00
  0.00000000E+00  0.00000000E+00  0.00000000E+00
  0.00000000E+00  0.00000000E+00  0.00000000E+00
  0.00000000E+00  0.00000000E+00  0.00000000E+00
  0.00000000E+00  0.00000000E+00  0.00000000E+00
  0.00000000E+00  0.00000000E+00  0.00000000E+00
  0.00000000E+00  0.00000000E+00  0.00000000E+00
  0.00000000E+00  0.00000000E+00  0.00000000E+00
  0.00000000E+00  0.00000000E+00  0.00000000E+00
  0.00000000E+00  0.00000000E+00  0.00000000E+00
  0.00000000E+00  0.00000000E+00  0.00000000E+00
  0.00000000E+00  0.00000000E+00  0.00000000E+00
  0.00000000E+00  0.00000000E+00  0.00000000E+00
  0.00000000E+00  0.00000000E+00  0.00000000E+00
  0.00000000E+00  0.00000000E+00  0.00000000E+00
  0.00000000E+00  0.00000000E+00  0.00000000E+00
  0.00000000E+00  0.00000000E+00  0.00000000E+00
  0.00000000E+00  0.00000000E+00  0.00000000E+00
  0.00000000E+00  0.00000000E+00  0.00000000E+00
  0.00000000E+00  0.00000000E+00  0.00000000E+00
  0.00000000E+00  0.00000000E+00  0.00000000E+00
  0.00000000E+00  0.00000000E+00  0.00000000E+00
  0.00000000E+00  0.00000000E+00  0.00000000E+00
  0.00000000E+00  0.00000000E+00  0.00000000E+00
  0.00000000E+00  0.00000000E+00  0.00000000E+00
  0.00000000E+00  0.00000000E+00  0.00000000E+00
  0.00000000E+00  0.00000000E+00  0.00000000E+00
  0.00000000E+00  0.00000000E+00  0.00000000E+00
  0.00000000E+00  0.00000000E+00  0.00000000E+00
