au_111_4_layers_5x5_with_h2o_6_bilayers_
   1.00000000000000     
    14.6976995467999991    0.0000000000000000    0.0000000000000000
    -7.3488497733999996   12.7285811846999994    0.0000000000000000
     0.0000000000000000    0.0000000000000000   49.2004013061999999
   Au   H    O 
   100    96    48
Selective dynamics
Direct
  0.0000000000000000  0.0000000000000000  0.0000000000000000   F   F   F
  0.2665635318710711  0.1334312597901191  0.0474137069116031   T   T   T
  0.1332338128135430  0.2662400356850571  0.0942222010972779   T   T   T
  0.0000705046935561  0.0001276086212331  0.1427125118225302   T   T   T
  0.9999999999764526  0.2000000029901230  0.0000000000000000   F   F   F
  0.2669716132680590  0.3334706214752223  0.0473340167052625   T   T   T
  0.1327244097431915  0.0665173251393234  0.0943269154227220   T   T   T
 -0.0000721518847623  0.1999586779338152  0.1416977752758377   T   T   T
  0.2000000030136633  0.2000000029901230  0.0000000000000000   F   F   F
  0.0667414159236529  0.3334976455321738  0.0474594914068395   T   T   T
  0.3331673522172947  0.0668929507032396  0.0941664595374875   T   T   T
  0.1987371400799679  0.1987922538385997  0.1422865377198561   T   T   T
  0.2000000029691691  0.0000000000000000  0.0000000000000000   F   F   F
  0.0665291963040261  0.1334903897752189  0.0473526378321520   T   T   T
  0.3325449978504712  0.2666424095256134  0.0943762575496892   T   T   T
  0.2000209721456262  0.0001978944059731  0.1417051457524890   T   T   T
  0.4000000059383453  0.0000000000000000  0.0000000000000000   F   F   F
  0.6666456079189654  0.1332817495503395  0.0474639014641094   T   T   T
  0.5325912779376129  0.2661477298371976  0.0943359542956651   T   T   T
  0.3989291986479029  0.0002161433135178  0.1418850634775321   T   T   T
  0.4000000059828395  0.2000000029901230  0.0000000000000000   F   F   F
  0.6666705524863721  0.3333378256699271  0.0476207695101543   T   T   T
  0.5325397006736250  0.0665635614476463  0.0941695319832323   T   T   T
  0.3983722368792785  0.2001773685750691  0.1419704208450031   T   T   T
  0.6000000238523029  0.2000000029901230  0.0000000000000000   F   F   F
  0.4666911905433748  0.3333689763371802  0.0474634906655691   T   T   T
  0.7333528173297600  0.0658373320430942  0.0943758808105957   T   T   T
  0.6012445513500541  0.2003679618917792  0.1415992889758891   T   T   T
  0.6000000238758432  0.0000000000000000  0.0000000000000000   F   F   F
  0.4668749768791297  0.1336636568205728  0.0472747542504955   T   T   T
  0.7338228582534869  0.2664256454047582  0.0943371736448152   T   T   T
  0.5982018269102926 -0.0000216466657142  0.1414386910840687   T   T   T
  0.8000000119447250  0.0000000000000000  0.0000000000000000   F   F   F
  0.9330888297037482  0.2662477898114993  0.0941624235335787   T   T   T
  0.8013552507635090  0.0000081982264915  0.1422969374761809   T   T   T
  0.7999999523200216  0.2000000029901230  0.0000000000000000   F   F   F
  0.9335621232672955  0.0662561974691081  0.0943243769614047   T   T   T
  0.7998128269031922  0.1981460376914947  0.1419669573255272   T   T   T
  0.8663006477813763  0.3331906584995730  0.0472756134937221   T   T   T
  0.8665675238894778  0.1331100080630809  0.0474118891465444   T   T   T
  0.0000000000209468  0.4000000059802389  0.0000000000000000   F   F   F
  0.2663168602795113  0.5331495523696179  0.0473526864405960   T   T   T
  0.1336382934010835  0.6671318551994168  0.0941506762435561   T   T   T
 -0.0003407938985269  0.3986853892844760  0.1418788881053679   T   T   T
  0.0000000000055138  0.6000000238188363  0.0000000000000000   F   F   F
  0.2668455294887646  0.7336201600695887  0.0473516086755241   T   T   T
  0.1334625538669970  0.4664842792089188  0.0945424419837503   T   T   T
 -0.0000105457649969  0.5982123847249583  0.1414312500687155   T   T   T
  0.2000000178749772  0.6000000238188363  0.0000000000000000   F   F   F
  0.0665697815299678  0.7330776274218315  0.0473359249287675   T   T   T
  0.3328778245368042  0.4664891410353147  0.0941554372852445   T   T   T
  0.2004793654357370  0.6015495452685506  0.1416345291946956   T   T   T
  0.2000000029901230  0.4000000059802389  0.0000000000000000   F   F   F
  0.0667528680800921  0.5331262733866523  0.0474276187500287   T   T   T
  0.3333117870199238  0.6665821739275141  0.0941115947390400   T   T   T
  0.2001544617105977  0.3982176183756082  0.1419830717747508   T   T   T
  0.4000000059592921  0.4000000059802389  0.0000000000000000   F   F   F
  0.6668162328034931  0.5331675135321403  0.0472727386805998   T   T   T
  0.5335378445800981  0.6670208946444104  0.0945382335971701   T   T   T
  0.4018696915807058  0.4018178309032361  0.1414468144250694   T   T   T
  0.4000000357444407  0.6000000238188363  0.0000000000000000   F   F   F
  0.6665064088176846  0.7332611595295068  0.0474595658510822   T   T   T
  0.5340636176043375  0.4674606354196917  0.0941671121218676   T   T   T
  0.3985181287152351  0.5989558676364076  0.1416313738633594   T   T   T
  0.6000000238133225  0.6000000238188363  0.0000000000000000   F   F   F
  0.4667987335324429  0.7331263208097233  0.0473526289902642   T   T   T
  0.7335672504123273  0.4674194957950157  0.0943318160029722   T   T   T
  0.6014142909827506  0.6011087332167263  0.1418778243228780   T   T   T
  0.6000000238287555  0.4000000059802389  0.0000000000000000   F   F   F
  0.4668795001264995  0.5336507409359699  0.0474277278339426   T   T   T
  0.7338363174778472  0.6669179233848682  0.0941618699129395   T   T   T
  0.5991390426396729  0.3987313093981645  0.1415985513654024   T   T   T
  0.8000000118976374  0.4000000059802389  0.0000000000000000   F   F   F
  0.9341699628660304  0.6675805018551801  0.0943755923749722   T   T   T
  0.7995760146522095  0.4008573669948112  0.1415961580150042   T   T   T
  0.8000000118822044  0.6000000238188363  0.0000000000000000   F   F   F
  0.9333719317941176  0.4659994445792075  0.0941642281436914   T   T   T
  0.8018880375402981  0.6017012231598721  0.1419660644293246   T   T   T
  0.8669123500319718  0.7334897153404583  0.0474087407531001   T   T   T
  0.8666972475207985  0.5333937910785091  0.0474584936683716   T   T   T
  0.0000000000419007  0.8000000119604849  0.0000000000000000   F   F   F
  0.2667644268601383  0.9332301450769620  0.0474593308493924   T   T   T
  0.0000532736811010  0.8014435737783230  0.1422956388703400   T   T   T
  0.1330333196242510  0.8668400879432741  0.0942286467465152   T   T   T
  0.3329710434321581  0.8664503884221563  0.0945411775201725   T   T   T
  0.2000000030110698  0.8000000119604849  0.0000000000000000   F   F   F
  0.0669974809675431  0.9334971385955890  0.0473514982791919   T   T   T
  0.1979983254523904  0.7998846713491210  0.1419829564125373   T   T   T
  0.4000000059802389  0.8000000119604849  0.0000000000000000   F   F   F
  0.6665221098297756  0.9334496947294465  0.0473369886806028   T   T   T
  0.4010607968749996  0.7994954601535554  0.1416277090565160   T   T   T
  0.5334785045250027  0.8663299396064388  0.0941475178306093   T   T   T
  0.7338508601699231  0.8670148443520965  0.0942257370534199   T   T   T
  0.6000000238497023  0.8000000119604849  0.0000000000000000   F   F   F
  0.4663377676013473  0.9331933703773968  0.0474229417119391   T   T   T
  0.6019451279659631  0.8020280788868676  0.1419745591326336   T   T   T
  0.8000000119185842  0.8000000119604849  0.0000000000000000   F   F   F
  0.8002065248792013  0.8000646234349581  0.1417073355351759   T   T   T
  0.9338442994978294  0.8674106949190414  0.0943254615794985   T   T   T
  0.8665413899284267  0.9330655319827177  0.0473515853413250   T   T   T
  0.1689178897238342  0.0633443769157096  0.2986708521313433   T   T   T
  0.3983244443731819  0.3351680726580565  0.2947156772126421   T   T   T
  0.1048707501792795  0.1677245560973830  0.2211741798849478   T   T   T
  0.0630643275144539  0.3929243670154947  0.2176361306610552   T   T   T
  0.1677665034935641  0.1048642854088649  0.2211637370479977   T   T   T
  0.3928680058957671  0.0629552123168170  0.2176619523006447   T   T   T
  0.0633877941910481  0.1689229008914081  0.2986680999291050   T   T   T
  0.3352077315217516  0.3983023440910023  0.2947723863310440   T   T   T
  0.1635806415709772 -0.0005875561998073  0.1881887986423403   T   T   T
  0.2336300747484205 -0.0002711196985898  0.2140416919425467   T   T   T
  0.3147681020390982  0.3153408304034637  0.1861169479661845   T   T   T
  0.2608778027324929  0.2609546203092877  0.2149397005932478   T   T   T
 -0.0004164410354716  0.1636794113792386  0.1881851489913628   T   T   T
 -0.0001901062154848  0.2336760293634562  0.2140370709009217   T   T   T
  0.3237288163401544  0.0000419880090548  0.2627322314940185   T   T   T
  0.2643271103514219  0.0000885890215656  0.2910657474804266   T   T   T
  0.1718443684804805  0.1717985078919661  0.2659280819296944   T   T   T
  0.2367688083721599  0.2367195587415649  0.2926616865425330   T   T   T
  0.0001794535830126  0.3237627071137188  0.2627172981513027   T   T   T
  0.0001260634949733  0.2643111614416762  0.2910547626032935   T   T   T
  0.6648250660971895  0.0631671072688051  0.2948670929112235   T   T   T
  0.8948039251780464  0.3314069025193133  0.2947535049325064   T   T   T
  0.4367789701207646  0.1056495550922809  0.2947725869445845   T   T   T
  0.6036585210409201  0.1665878470412888  0.2156764190924016   T   T   T
  0.5629350889452281  0.3962214120236065  0.2156023098469918   T   T   T
  0.4359217403979480  0.3314320261899429  0.2161091476610327   T   T   T
  0.6686421821693583  0.1046135241315630  0.2161574612171038   T   T   T
  0.8947640764202252  0.0628191938913352  0.2212577039269435   T   T   T
  0.5633159880736630  0.1686350808936704  0.2940247507318999   T   T   T
  0.8317798946282947  0.3949286511810514  0.2939822069576614   T   T   T
  0.6849688408904677 -0.0001200559495688  0.1861075259702330   T   T   T
  0.7390281283940339  0.0000519543216799  0.2149749522176203   T   T   T
  0.8324333676061711  0.3242058879354663  0.1846475052391852   T   T   T
  0.7637154117851825  0.2630778498453096  0.2113766740827637   T   T   T
  0.4914338895440688  0.1672193932889501  0.1846187631602546   T   T   T
  0.4990321626586222  0.2360659631326678  0.2113179268321399   T   T   T
  0.8279101465401862  0.0000206181661889  0.2660224425338080   T   T   T
  0.7631576553276610  0.0000378705856130  0.2927922835513926   T   T   T
  0.6722200819493145  0.1726111375703902  0.2608005031041326   T   T   T
  0.7348545197784281  0.2351272847289037  0.2883940785776596   T   T   T
  0.5004483392555469  0.3278083137868544  0.2606884132093643   T   T   T
  0.5003694405816523  0.2653277864435645  0.2883282600159531   T   T   T
  0.1685504801306030  0.5632276274339397  0.2941257415293057   T   T   T
  0.3948955009567982  0.8317630874636989  0.2940776156853945   T   T   T
  0.3313864563480788  0.4359918890972581  0.2162293486423949   T   T   T
  0.1047583008554939  0.6686678694858019  0.2162770168195681   T   T   T
  0.0627685624037970  0.8947645167115281  0.2212716497613439   T   T   T
  0.1666807081364214  0.6036408444387964  0.2157687654299383   T   T   T
  0.3962116736454149  0.5629925108406598  0.2156995030794180   T   T   T
  0.0631113900672959  0.6647947795207596  0.2949153735423832   T   T   T
  0.3313859653740410  0.8947972410366609  0.2948126593442218   T   T   T
  0.1055726169740738  0.4366863230692230  0.2948139543526769   T   T   T
  0.1677670759589072  0.4919100525825298  0.1846326184024803   T   T   T
  0.2361813597122219  0.4991319094181738  0.2113890767726577   T   T   T
  0.3241185888442061  0.8319256131205758  0.1846667857877867   T   T   T
  0.2630799354891570  0.7636000201659650  0.2114489162521177   T   T   T
  0.0011014186088911  0.6855702726654771  0.1861074143626208   T   T   T
  0.0002466905152261  0.7391261109851136  0.2149734433571064   T   T   T
  0.3278354880644062  0.5005437299019702  0.2608147488884021   T   T   T
  0.2652970447038117  0.5003511051257841  0.2884506428977638   T   T   T
  0.1726605650757767  0.6721328918201543  0.2609104126102246   T   T   T
  0.2351089663079678  0.7348214830456909  0.2885029707893114   T   T   T
 -0.0000654663199502  0.8278682330860431  0.2660240315465430   T   T   T
 -0.0000459960912773  0.7631273639130708  0.2927958043551508   T   T   T
  0.6686632424676238  0.5632078935132647  0.2947547236604114   T   T   T
  0.8942492444734532  0.8308844854998683  0.2986820310442222   T   T   T
  0.4367471544541844  0.6051925578399319  0.2940560203353267   T   T   T
  0.8336084790610993  0.4374123400108944  0.2156741273427818   T   T   T
  0.6068964054244324  0.6701322884155545  0.2175948898511475   T   T   T
  0.5642940080481461  0.8957261435476266  0.2162199243686299   T   T   T
  0.4373123392186293  0.8335085342993960  0.2157534061473117   T   T   T
  0.6700688089841729  0.6069570622128976  0.2176135546255833   T   T   T
  0.8958840091988178  0.5643997447239968  0.2161143007615808   T   T   T
  0.5632638007177232  0.6686729352610944  0.2947931249223764   T   T   T
  0.8308624829071729  0.8942849448954993  0.2986778506758772   T   T   T
  0.6051723979185765  0.4367094539982286  0.2939601289152893   T   T   T
  0.6761150465023353  0.5083799561902177  0.1846139715101841   T   T   T
  0.7373255969999116  0.5010513498496164  0.2113555042034824   T   T   T
  0.8362607974232227  0.8363410059795218  0.1882060341129063   T   T   T
  0.7662342687858771  0.7662816795326834  0.2140160821430615   T   T   T
  0.5079318349552250  0.6761130463970451  0.1846273226963738   T   T   T
  0.5009191022303268  0.7372970695397325  0.2114137446359990   T   T   T
  0.8275933201684729  0.4999020779931673  0.2607672145825474   T   T   T
  0.7649470840993329  0.4996968644222564  0.2883777464345113   T   T   T
  0.6760446938422924  0.6761050358476737  0.2626694552590630   T   T   T
  0.7355132584239055  0.7355303046161439  0.2909970426041402   T   T   T
  0.4997632115811764  0.8275237594605284  0.2608640587409158   T   T   T
  0.4997042432479502  0.7649457640877174  0.2884718168548692   T   T   T
  0.9366033098121672  0.1055749181405102  0.2986986254764383   T   T   T
  0.9367495675764911  0.3298526711916998  0.2176834801390428   T   T   T
  0.9368613533541875  0.6016846793476117  0.2948536412754972   T   T   T
  0.9370404083563491  0.8318687373106914  0.2212622179723353   T   T   T
  0.3297743517290868  0.9366421635351376  0.2176705592017810   T   T   T
  0.1055531858307838  0.9365647198414524  0.2986965893371147   T   T   T
  0.8319258569721264  0.9370908941583883  0.2212733661550851   T   T   T
  0.6016885237407983  0.9369170512187706  0.2948868825039597   T   T   T
  0.1650925035219984 -0.0003185963609136  0.2081774170062756   T   T   T
  0.1733546856096516 -0.0000182967670609  0.3041044466853318   T   T   T
  0.3254802357760686  0.3256563001506035  0.2058162585305653   T   T   T
  0.3334909872042388  0.3334156413869591  0.3017393502783978   T   T   T
 -0.0002714202938957  0.1651274303893987  0.2081734374485074   T   T   T
  0.0000338865598788  0.1733800219146351  0.3041040161990871   T   T   T
  0.3295187843989577  0.0001952240282014  0.2826140198104054   T   T   T
  0.3275812144829193 -0.0002187978202255  0.2245141611655459   T   T   T
  0.1696009518230281  0.1695664041025655  0.2858934466815163   T   T   T
  0.1707599781315750  0.1707318432176060  0.2279442428677252   T   T   T
  0.0002333027859270  0.3295000234906349  0.2825990734337675   T   T   T
 -0.0000850737635778  0.3276618764857095  0.2245072629496291   T   T   T
  0.6744710694515630  0.0001343519537839  0.2058008411613473   T   T   T
  0.6665128769524459  0.0000587402065590  0.3018934685873825   T   T   T
  0.8322923054085355  0.3295097109628551  0.2045384074480497   T   T   T
  0.8273707825625122  0.3278968451104351  0.3001376348800176   T   T   T
  0.4968214995020641  0.1674365051968273  0.2045117718525706   T   T   T
  0.5006930052850046  0.1730924953920946  0.3001616503495209   T   T   T
  0.8302767533162700  0.0000230245301661  0.2859866842156681   T   T   T
  0.8288986500207093 -0.0000421960983447  0.2280510332287090   T   T   T
  0.6686022677007780  0.1688451919538186  0.2807224717028882   T   T   T
  0.6697536011458161  0.1701781825664505  0.2223734976434994   T   T   T
  0.5002875200467994  0.3315216776624361  0.2806087448171644   T   T   T
  0.5003358869274649  0.3301867631709328  0.2222895116020876   T   T   T
  0.1675961133801306  0.4969168679627578  0.2045283191014422   T   T   T
  0.1729634294198251  0.5005662969702820  0.3002481352195994   T   T   T
  0.3294350287047552  0.8321396775345198  0.2045592200770962   T   T   T
  0.3278675219818965  0.8273863691828764  0.3002249280188647   T   T   T
  0.0005403827772527  0.6746675600797870  0.2058005603824963   T   T   T
 -0.0000595210868092  0.6664701093098989  0.3019018035002290   T   T   T
  0.3315360953600000  0.5003421194214465  0.2807352171686503   T   T   T
  0.3301999886049576  0.5004371666970608  0.2224163658453216   T   T   T
  0.1688409674010158  0.6685486106792845  0.2808330219761770   T   T   T
  0.1702887072436855  0.6697080976836227  0.2224970316837455   T   T   T
 -0.0000388978247012  0.8302523128460285  0.2859880305627077   T   T   T
 -0.0000969148418786  0.8288672500764341  0.2280512835981390   T   T   T
  0.6708033655753342  0.5029780824770960  0.2045050963802030   T   T   T
  0.6721718861893154  0.4992963275754490  0.3001514670763281   T   T   T
  0.8347875343043708  0.8348125454490751  0.2081940437643980   T   T   T
  0.8263817100684404  0.8264154444873009  0.3040542255598806   T   T   T
  0.5028668704890530  0.6708160119362314  0.2045209903199097   T   T   T
  0.4993921236971901  0.6722053541140730  0.3002243706100294   T   T   T
  0.8312935286266944  0.4998840687843211  0.2806885741216424   T   T   T
  0.8302609013938189  0.5000713220186048  0.2223533703838209   T   T   T
  0.6703761047317252  0.6703853238586905  0.2825513282445781   T   T   T
  0.6721930158662454  0.6722697758337672  0.2244463175056716   T   T   T
  0.4998196376193320  0.8312654904715645  0.2807861841102167   T   T   T
  0.4999226152381601  0.8301293357215350  0.2224595429051660   T   T   T
