au_111_4_layers_5x5_with_h2o_6_bilayers_
   1.00000000000000     
    14.6976995467999991    0.0000000000000000    0.0000000000000000
    -7.3488497733999996   12.7285811846999994    0.0000000000000000
     0.0000000000000000    0.0000000000000000   49.2004013061999999
   Au   H    O 
   100    48    24
Selective dynamics
Direct
  0.0000000000000000  0.0000000000000000  0.0000000000000000   F   F   F
  0.2677065008870149  0.1341442615309747  0.0473191558933909   T   T   T
  0.1324330139496474  0.2673415556680238  0.0943483438315373   T   T   T
  0.0001304646800945  0.0001037221555072  0.1404028100553768   T   T   T
  0.9999999999764526  0.2000000029901230  0.0000000000000000   F   F   F
  0.2658221833589705  0.3337225617574451  0.0477049126577508   T   T   T
  0.1342512890986870  0.0670052423361726  0.0939355747502658   T   T   T
  0.9997164399063521  0.2004088375179445  0.1417843644859031   T   T   T
  0.2000000030136633  0.2000000029901230  0.0000000000000000   F   F   F
  0.0662420494113414  0.3335857181847923  0.0473762841209974   T   T   T
  0.3334705418284219  0.0669067195659898  0.0946820660110245   T   T   T
  0.2007055306566809  0.2009116092213515  0.1406328000440289   T   T   T
  0.2000000029691691  0.0000000000000000  0.0000000000000000   F   F   F
  0.0672895630984116  0.1334701495233662  0.0473500357137340   T   T   T
  0.3347640526058147  0.2676526241224501  0.0941412861841857   T   T   T
  0.2007955477094201  0.0004020733887145  0.1417801542260883   T   T   T
  0.4000000059383453  0.0000000000000000  0.0000000000000000   F   F   F
  0.6665013830166264  0.1339269367650120  0.0473462090649999   T   T   T
  0.5342808669168720  0.2679583697537307  0.0945556218668842   T   T   T
  0.4003369402522675  0.0000106881734262  0.1418465064720721   T   T   T
  0.4000000059828395  0.2000000029901230  0.0000000000000000   F   F   F
  0.6666884440145214  0.3333875411636618  0.0474130784676493   T   T   T
  0.5338828575640820  0.0663563722085649  0.0947502683040749   T   T   T
  0.4008402987554909  0.2014082262066424  0.1416891141483654   T   T   T
  0.6000000238523029  0.2000000029901230  0.0000000000000000   F   F   F
  0.4674456234146621  0.3335678880134241  0.0473500984288942   T   T   T
  0.7324678030579858  0.0670998324903872  0.0941334537655156   T   T   T
  0.5992965100054044  0.1999800390625639  0.1421825689458208   T   T   T
  0.6000000238758432  0.0000000000000000  0.0000000000000000   F   F   F
  0.4665157904437421  0.1330226684416650  0.0479336747559972   T   T   T
  0.7321378895893118  0.2663609703996949  0.0945508449130404   T   T   T
  0.5994035776027002  0.9996488896464434  0.1424446419313199   T   T   T
  0.8000000119447250  0.0000000000000000  0.0000000000000000   F   F   F
  0.9331935662525461  0.2665765809365931  0.0946858711187022   T   T   T
  0.7992242463567678 -0.0001297450443873  0.1406531437242738   T   T   T
  0.7999999523200216  0.2000000029901230  0.0000000000000000   F   F   F
  0.9330945077682594  0.0672450434337613  0.0939449687625061   T   T   T
  0.7986824762089184  0.1993890558463444  0.1416770986424414   T   T   T
  0.8670309750587788  0.3335044138707882  0.0479336358450635   T   T   T
  0.8659032412056515  0.1335637912357441  0.0473198402874562   T   T   T
  0.0000000000209468  0.4000000059802389  0.0000000000000000   F   F   F
  0.2675654464310558  0.5337208893380807  0.0476719632871126   T   T   T
  0.1333941814502387  0.6662313754859366  0.0947955279878550   T   T   T
  0.0000015513102995  0.4003246863149797  0.1418509004735661   T   T   T
  0.0000000000055138  0.6000000238188363  0.0000000000000000   F   F   F
  0.2661632357908156  0.7324307934574720  0.0476695201392852   T   T   T
  0.1329411714755568  0.4668518175483267  0.0942316712384987   T   T   T
  0.0003777874049593  0.5997699575339788  0.1424502183404267   T   T   T
  0.2000000178749772  0.6000000238188363  0.0000000000000000   F   F   F
  0.0679047243053517  0.7341873352612878  0.0477038318506526   T   T   T
  0.3337911973507032  0.4671767662703516  0.0948061201637644   T   T   T
  0.2000045768391113  0.5994765213342589  0.1421976820000970   T   T   T
  0.2000000029901230  0.4000000059802389  0.0000000000000000   F   F   F
  0.0661928911614692  0.5336197050624047  0.0474794029841344   T   T   T
  0.3333181611543102  0.6666579810237679  0.0949147382982903   T   T   T
  0.2003537159217344  0.4007244301886925  0.1416996526272029   T   T   T
  0.4000000059592921  0.4000000059802389  0.0000000000000000   F   F   F
  0.6664766544319787  0.5335519925233452  0.0479442072263701   T   T   T
  0.5331441770827986  0.6661138925377015  0.0942378895940961   T   T   T
  0.4003391950635493  0.4006919230101251  0.1424697462433405   T   T   T
  0.4000000357444407  0.6000000238188363  0.0000000000000000   F   F   F
  0.6664132646442484  0.7326734337352864  0.0473798009411902   T   T   T
  0.5325391987430651  0.4662672072404264  0.0947744243354060   T   T   T
  0.4005337823412520  0.6005746504062178  0.1422010917569541   T   T   T
  0.6000000238133225  0.6000000238188363  0.0000000000000000   F   F   F
  0.4662604760434335  0.7338436268198294  0.0476709101229502   T   T   T
  0.7337404132270881  0.4659068594530064  0.0945613418949549   T   T   T
  0.5997996406542946  0.5998264079339435  0.1418689556039289   T   T   T
  0.6000000238287555  0.4000000059802389  0.0000000000000000   F   F   F
  0.4663770526386318  0.5326024345730860  0.0474839429644747   T   T   T
  0.7335038057785079  0.6667481511951845  0.0946898773727886   T   T   T
  0.6007906995702882  0.4008333894237013  0.1421888891602761   T   T   T
  0.8000000118976374  0.4000000059802389  0.0000000000000000   F   F   F
  0.9329775010392599  0.6654370020881462  0.0941362936378352   T   T   T
  0.8000460838530518  0.3993371325364700  0.1421735136061089   T   T   T
  0.8000000118822044  0.6000000238188363  0.0000000000000000   F   F   F
  0.9336791399609770  0.4675438251816481  0.0947533098767686   T   T   T
  0.8007068191352923  0.5994295982911293  0.1416819204315015   T   T   T
  0.8664405134532603  0.7323496475526803  0.0473214274942526   T   T   T
  0.8660846038248695  0.5325919333509935  0.0473463634289189   T   T   T
  0.0000000000419007  0.8000000119604849  0.0000000000000000   F   F   F
  0.2673526820033311  0.9337778034173413  0.0473766847076880   T   T   T
  0.0003277740660600  0.7994670295113263  0.1406555372648768   T   T   T
  0.1349680163752864  0.8676482852919459  0.0943525589446933   T   T   T
  0.3339244571776388  0.8670774849923299  0.0942264030283021   T   T   T
  0.2000000030110698  0.8000000119604849  0.0000000000000000   F   F   F
  0.0661924137285975  0.9327242299000021  0.0473515171398613   T   T   T
  0.2003662435669154  0.7996618913116466  0.1416910629510800   T   T   T
  0.4000000059802389  0.8000000119604849  0.0000000000000000   F   F   F
  0.6662796881506173  0.9321011721836220  0.0477046019320872   T   T   T
  0.3994779691485186  0.8000042488798823  0.1421931430190780   T   T   T
  0.5328297334745896  0.8666183635896314  0.0947946157109265   T   T   T
  0.7326974553953404  0.8651253780920523  0.0943571818709575   T   T   T
  0.6000000238497023  0.8000000119604849  0.0000000000000000   F   F   F
  0.4674276023156825  0.9338183511276064  0.0474778573549426   T   T   T
  0.5993224801064224  0.7996654644154833  0.1416938057666024   T   T   T
  0.8000000119185842  0.8000000119604849  0.0000000000000000   F   F   F
  0.7997524671369057  0.7994798341957556  0.1417948995091509   T   T   T
  0.9328338660646681  0.8659122523436709  0.0939464875569674   T   T   T
  0.8665343463208995  0.9338232439746993  0.0473545693192230   T   T   T
  0.1721765441390416  0.0642653706187796  0.1990356917068408   T   T   T
  0.3986878444667538  0.3352451569901502  0.2070534472984398   T   T   T
  0.0640217478579261  0.1721611380895557  0.1989993040634345   T   T   T
  0.3354735527621995  0.3985971936038137  0.2069525023846729   T   T   T
  0.3254089976364937 -0.0003904239435338  0.2354117892404078   T   T   T
  0.2696835306985080  0.0001399428400782  0.2073334076775858   T   T   T
  0.1693011935802982  0.1695157710054934  0.2305859642692980   T   T   T
  0.2400110454463960  0.2400137378670247  0.2054078147395188   T   T   T
  0.9996543353000661  0.3254913724453196  0.2353909660732863   T   T   T
  0.9998552134210190  0.2695653454565272  0.2073199088465442   T   T   T
  0.6654363567697494  0.0631138689919084  0.2069873702151396   T   T   T
  0.8913213824763792  0.3375289417155041  0.2048549091071240   T   T   T
  0.4459683781505146  0.1084321266661376  0.2049993088612501   T   T   T
  0.5709132515391105  0.1718902967514017  0.2091993525316606   T   T   T
  0.8277550174304229  0.3988540939690483  0.2091415763809834   T   T   T
  0.8317016583496445 -0.0000685116726439  0.2307196418038818   T   T   T
  0.7609328020140842 -0.0000653064430189  0.2055565070185930   T   T   T
  0.6832735870560722  0.1743679018772484  0.2416833003047045   T   T   T
  0.7389930958979634  0.2396826395192078  0.2139070087116316   T   T   T
  0.4914715697843006  0.3167247669903688  0.2418943527606371   T   T   T
  0.5007982843321428  0.2607881941510931  0.2141080094651841   T   T   T
  0.1718220363467506  0.5707275290422121  0.2089480892489231   T   T   T
  0.3989092125715969  0.8279936245860441  0.2089215207722639   T   T   T
  0.0629854264109001  0.6652109853384822  0.2069039929939630   T   T   T
  0.3375717848039699  0.8916649953176629  0.2047913458679019   T   T   T
  0.1081975542601564  0.4457013169745864  0.2048755225370544   T   T   T
  0.3169541998519341  0.4918620222410126  0.2416572012384298   T   T   T
  0.2608166018815898  0.5007148851113389  0.2138668087417638   T   T   T
  0.1746802256436914  0.6830024667111738  0.2414586618583681   T   T   T
  0.2397558440205941  0.7390478301982755  0.2136891372322230   T   T   T
  0.0002793481601331  0.8317863372457633  0.2307127163393477   T   T   T
  0.0000290950335480  0.7608851879753742  0.2055531630895394   T   T   T
  0.6622284684116957  0.5537543394094920  0.2048996237652436   T   T   T
  0.8920644721212431  0.8282168596778976  0.1990786984874262   T   T   T
  0.4291245469017637  0.6008770581628320  0.2090138971125250   T   T   T
  0.5540920287214934  0.6622320013003109  0.2047932046436091   T   T   T
  0.8283235647146144  0.8918135869054704  0.1990588066724656   T   T   T
  0.6008582079963934  0.4288786801303677  0.2092599653270714   T   T   T
  0.8250726802204031  0.5083132085183614  0.2417319434866524   T   T   T
  0.7598496765917950  0.4990150732276224  0.2139547876680500   T   T   T
  0.6742843674275482  0.6743229243604356  0.2353808455336563   T   T   T
  0.7304361496111395  0.7302661892776329  0.2073134024278327   T   T   T
  0.5079519952585185  0.8248315684551257  0.2414992301608752   T   T   T
  0.4991102561144093  0.7598645862218649  0.2137195959088303   T   T   T
  0.9365916850671400  0.1080875775341299  0.1990837154353502   T   T   T
  0.9364002468451236  0.6020053699272171  0.2070245806102206   T   T   T
  0.1083183023641171  0.9368300957342086  0.1990567575899943   T   T   T
  0.6021247203981690  0.9365366282097454  0.2069268705212261   T   T   T
  0.1770223798433125  0.0004702069190235  0.1942471158040447   T   T   T
  0.3379305480667610  0.3376962362896084  0.1986464672794201   T   T   T
  0.0001284331019412  0.1768486165857371  0.1942390461194695   T   T   T
  0.3339836668218136 -0.0001029141086570  0.2158051180220357   T   T   T
  0.1706624201817216  0.1708101759869259  0.2108095006921842   T   T   T
  0.9997504904950670  0.3339435047066017  0.2157829294407370   T   T   T
  0.6633320177866574  0.9998677456963536  0.1987107330253765   T   T   T
  0.8226591827614904  0.3336426781231290  0.2013058544507812   T   T   T
  0.5107488872540499  0.1770895844574111  0.2014440895898553   T   T   T
  0.8303022704646030 -0.0000060459789975  0.2109388345508623   T   T   T
  0.6757297791696395  0.1704138728695286  0.2220319178628931   T   T   T
  0.4950564394480992  0.3242017600224392  0.2222409046092124   T   T   T
  0.1768448987489253  0.5104027044965986  0.2012344099057131   T   T   T
  0.3336856505277285  0.8230527316993227  0.2011413620706941   T   T   T
  0.9996017793834145  0.6630820446420459  0.1987171382278328   T   T   T
  0.3243342168685409  0.4951994358330982  0.2220022956518651   T   T   T
  0.1706125314445216  0.6756243798217756  0.2218021954155361   T   T   T
  0.0002842956645246  0.8303489815240996  0.2109302365334270   T   T   T
  0.6659660173285834  0.4888944047447784  0.2013530724122594   T   T   T
  0.8233455604608606  0.8231364211088154  0.1942527706069954   T   T   T
  0.4892945344034860  0.6659979054932739  0.2011561320691342   T   T   T
  0.8290574898177564  0.5048647018406108  0.2220762215993987   T   T   T
  0.6659612217038843  0.6658702494124717  0.2157726132771513   T   T   T
  0.5047548939482341  0.8289661370789247  0.2218423712530375   T   T   T
 
  0.00000000E+00  0.00000000E+00  0.00000000E+00
  0.00000000E+00  0.00000000E+00  0.00000000E+00
  0.00000000E+00  0.00000000E+00  0.00000000E+00
  0.00000000E+00  0.00000000E+00  0.00000000E+00
  0.00000000E+00  0.00000000E+00  0.00000000E+00
  0.00000000E+00  0.00000000E+00  0.00000000E+00
  0.00000000E+00  0.00000000E+00  0.00000000E+00
  0.00000000E+00  0.00000000E+00  0.00000000E+00
  0.00000000E+00  0.00000000E+00  0.00000000E+00
  0.00000000E+00  0.00000000E+00  0.00000000E+00
  0.00000000E+00  0.00000000E+00  0.00000000E+00
  0.00000000E+00  0.00000000E+00  0.00000000E+00
  0.00000000E+00  0.00000000E+00  0.00000000E+00
  0.00000000E+00  0.00000000E+00  0.00000000E+00
  0.00000000E+00  0.00000000E+00  0.00000000E+00
  0.00000000E+00  0.00000000E+00  0.00000000E+00
  0.00000000E+00  0.00000000E+00  0.00000000E+00
  0.00000000E+00  0.00000000E+00  0.00000000E+00
  0.00000000E+00  0.00000000E+00  0.00000000E+00
  0.00000000E+00  0.00000000E+00  0.00000000E+00
  0.00000000E+00  0.00000000E+00  0.00000000E+00
  0.00000000E+00  0.00000000E+00  0.00000000E+00
  0.00000000E+00  0.00000000E+00  0.00000000E+00
  0.00000000E+00  0.00000000E+00  0.00000000E+00
  0.00000000E+00  0.00000000E+00  0.00000000E+00
  0.00000000E+00  0.00000000E+00  0.00000000E+00
  0.00000000E+00  0.00000000E+00  0.00000000E+00
  0.00000000E+00  0.00000000E+00  0.00000000E+00
  0.00000000E+00  0.00000000E+00  0.00000000E+00
  0.00000000E+00  0.00000000E+00  0.00000000E+00
  0.00000000E+00  0.00000000E+00  0.00000000E+00
  0.00000000E+00  0.00000000E+00  0.00000000E+00
  0.00000000E+00  0.00000000E+00  0.00000000E+00
  0.00000000E+00  0.00000000E+00  0.00000000E+00
  0.00000000E+00  0.00000000E+00  0.00000000E+00
  0.00000000E+00  0.00000000E+00  0.00000000E+00
  0.00000000E+00  0.00000000E+00  0.00000000E+00
  0.00000000E+00  0.00000000E+00  0.00000000E+00
  0.00000000E+00  0.00000000E+00  0.00000000E+00
  0.00000000E+00  0.00000000E+00  0.00000000E+00
  0.00000000E+00  0.00000000E+00  0.00000000E+00
  0.00000000E+00  0.00000000E+00  0.00000000E+00
  0.00000000E+00  0.00000000E+00  0.00000000E+00
  0.00000000E+00  0.00000000E+00  0.00000000E+00
  0.00000000E+00  0.00000000E+00  0.00000000E+00
  0.00000000E+00  0.00000000E+00  0.00000000E+00
  0.00000000E+00  0.00000000E+00  0.00000000E+00
  0.00000000E+00  0.00000000E+00  0.00000000E+00
  0.00000000E+00  0.00000000E+00  0.00000000E+00
  0.00000000E+00  0.00000000E+00  0.00000000E+00
  0.00000000E+00  0.00000000E+00  0.00000000E+00
  0.00000000E+00  0.00000000E+00  0.00000000E+00
  0.00000000E+00  0.00000000E+00  0.00000000E+00
  0.00000000E+00  0.00000000E+00  0.00000000E+00
  0.00000000E+00  0.00000000E+00  0.00000000E+00
  0.00000000E+00  0.00000000E+00  0.00000000E+00
  0.00000000E+00  0.00000000E+00  0.00000000E+00
  0.00000000E+00  0.00000000E+00  0.00000000E+00
  0.00000000E+00  0.00000000E+00  0.00000000E+00
  0.00000000E+00  0.00000000E+00  0.00000000E+00
  0.00000000E+00  0.00000000E+00  0.00000000E+00
  0.00000000E+00  0.00000000E+00  0.00000000E+00
  0.00000000E+00  0.00000000E+00  0.00000000E+00
  0.00000000E+00  0.00000000E+00  0.00000000E+00
  0.00000000E+00  0.00000000E+00  0.00000000E+00
  0.00000000E+00  0.00000000E+00  0.00000000E+00
  0.00000000E+00  0.00000000E+00  0.00000000E+00
  0.00000000E+00  0.00000000E+00  0.00000000E+00
  0.00000000E+00  0.00000000E+00  0.00000000E+00
  0.00000000E+00  0.00000000E+00  0.00000000E+00
  0.00000000E+00  0.00000000E+00  0.00000000E+00
  0.00000000E+00  0.00000000E+00  0.00000000E+00
  0.00000000E+00  0.00000000E+00  0.00000000E+00
  0.00000000E+00  0.00000000E+00  0.00000000E+00
  0.00000000E+00  0.00000000E+00  0.00000000E+00
  0.00000000E+00  0.00000000E+00  0.00000000E+00
  0.00000000E+00  0.00000000E+00  0.00000000E+00
  0.00000000E+00  0.00000000E+00  0.00000000E+00
  0.00000000E+00  0.00000000E+00  0.00000000E+00
  0.00000000E+00  0.00000000E+00  0.00000000E+00
  0.00000000E+00  0.00000000E+00  0.00000000E+00
  0.00000000E+00  0.00000000E+00  0.00000000E+00
  0.00000000E+00  0.00000000E+00  0.00000000E+00
  0.00000000E+00  0.00000000E+00  0.00000000E+00
  0.00000000E+00  0.00000000E+00  0.00000000E+00
  0.00000000E+00  0.00000000E+00  0.00000000E+00
  0.00000000E+00  0.00000000E+00  0.00000000E+00
  0.00000000E+00  0.00000000E+00  0.00000000E+00
  0.00000000E+00  0.00000000E+00  0.00000000E+00
  0.00000000E+00  0.00000000E+00  0.00000000E+00
  0.00000000E+00  0.00000000E+00  0.00000000E+00
  0.00000000E+00  0.00000000E+00  0.00000000E+00
  0.00000000E+00  0.00000000E+00  0.00000000E+00
  0.00000000E+00  0.00000000E+00  0.00000000E+00
  0.00000000E+00  0.00000000E+00  0.00000000E+00
  0.00000000E+00  0.00000000E+00  0.00000000E+00
  0.00000000E+00  0.00000000E+00  0.00000000E+00
  0.00000000E+00  0.00000000E+00  0.00000000E+00
  0.00000000E+00  0.00000000E+00  0.00000000E+00
  0.00000000E+00  0.00000000E+00  0.00000000E+00
  0.00000000E+00  0.00000000E+00  0.00000000E+00
  0.00000000E+00  0.00000000E+00  0.00000000E+00
  0.00000000E+00  0.00000000E+00  0.00000000E+00
  0.00000000E+00  0.00000000E+00  0.00000000E+00
  0.00000000E+00  0.00000000E+00  0.00000000E+00
  0.00000000E+00  0.00000000E+00  0.00000000E+00
  0.00000000E+00  0.00000000E+00  0.00000000E+00
  0.00000000E+00  0.00000000E+00  0.00000000E+00
  0.00000000E+00  0.00000000E+00  0.00000000E+00
  0.00000000E+00  0.00000000E+00  0.00000000E+00
  0.00000000E+00  0.00000000E+00  0.00000000E+00
  0.00000000E+00  0.00000000E+00  0.00000000E+00
  0.00000000E+00  0.00000000E+00  0.00000000E+00
  0.00000000E+00  0.00000000E+00  0.00000000E+00
  0.00000000E+00  0.00000000E+00  0.00000000E+00
  0.00000000E+00  0.00000000E+00  0.00000000E+00
  0.00000000E+00  0.00000000E+00  0.00000000E+00
  0.00000000E+00  0.00000000E+00  0.00000000E+00
  0.00000000E+00  0.00000000E+00  0.00000000E+00
  0.00000000E+00  0.00000000E+00  0.00000000E+00
  0.00000000E+00  0.00000000E+00  0.00000000E+00
  0.00000000E+00  0.00000000E+00  0.00000000E+00
  0.00000000E+00  0.00000000E+00  0.00000000E+00
  0.00000000E+00  0.00000000E+00  0.00000000E+00
  0.00000000E+00  0.00000000E+00  0.00000000E+00
  0.00000000E+00  0.00000000E+00  0.00000000E+00
  0.00000000E+00  0.00000000E+00  0.00000000E+00
  0.00000000E+00  0.00000000E+00  0.00000000E+00
  0.00000000E+00  0.00000000E+00  0.00000000E+00
  0.00000000E+00  0.00000000E+00  0.00000000E+00
  0.00000000E+00  0.00000000E+00  0.00000000E+00
  0.00000000E+00  0.00000000E+00  0.00000000E+00
  0.00000000E+00  0.00000000E+00  0.00000000E+00
  0.00000000E+00  0.00000000E+00  0.00000000E+00
  0.00000000E+00  0.00000000E+00  0.00000000E+00
  0.00000000E+00  0.00000000E+00  0.00000000E+00
  0.00000000E+00  0.00000000E+00  0.00000000E+00
  0.00000000E+00  0.00000000E+00  0.00000000E+00
  0.00000000E+00  0.00000000E+00  0.00000000E+00
  0.00000000E+00  0.00000000E+00  0.00000000E+00
  0.00000000E+00  0.00000000E+00  0.00000000E+00
  0.00000000E+00  0.00000000E+00  0.00000000E+00
  0.00000000E+00  0.00000000E+00  0.00000000E+00
  0.00000000E+00  0.00000000E+00  0.00000000E+00
  0.00000000E+00  0.00000000E+00  0.00000000E+00
  0.00000000E+00  0.00000000E+00  0.00000000E+00
  0.00000000E+00  0.00000000E+00  0.00000000E+00
  0.00000000E+00  0.00000000E+00  0.00000000E+00
  0.00000000E+00  0.00000000E+00  0.00000000E+00
  0.00000000E+00  0.00000000E+00  0.00000000E+00
  0.00000000E+00  0.00000000E+00  0.00000000E+00
  0.00000000E+00  0.00000000E+00  0.00000000E+00
  0.00000000E+00  0.00000000E+00  0.00000000E+00
  0.00000000E+00  0.00000000E+00  0.00000000E+00
  0.00000000E+00  0.00000000E+00  0.00000000E+00
  0.00000000E+00  0.00000000E+00  0.00000000E+00
  0.00000000E+00  0.00000000E+00  0.00000000E+00
  0.00000000E+00  0.00000000E+00  0.00000000E+00
  0.00000000E+00  0.00000000E+00  0.00000000E+00
  0.00000000E+00  0.00000000E+00  0.00000000E+00
  0.00000000E+00  0.00000000E+00  0.00000000E+00
  0.00000000E+00  0.00000000E+00  0.00000000E+00
  0.00000000E+00  0.00000000E+00  0.00000000E+00
  0.00000000E+00  0.00000000E+00  0.00000000E+00
  0.00000000E+00  0.00000000E+00  0.00000000E+00
  0.00000000E+00  0.00000000E+00  0.00000000E+00
  0.00000000E+00  0.00000000E+00  0.00000000E+00
  0.00000000E+00  0.00000000E+00  0.00000000E+00
  0.00000000E+00  0.00000000E+00  0.00000000E+00
  0.00000000E+00  0.00000000E+00  0.00000000E+00
  0.00000000E+00  0.00000000E+00  0.00000000E+00
  0.00000000E+00  0.00000000E+00  0.00000000E+00
