au_111_4_layers_5x5_with_h2o_6_bilayers_
   1.00000000000000     
    14.6976995467999991    0.0000000000000000    0.0000000000000000
    -7.3488497733999996   12.7285811846999994    0.0000000000000000
     0.0000000000000000    0.0000000000000000   49.2004013061999999
   Au   H    O 
   100    48    24
Selective dynamics
Direct
  0.0000000000000000  0.0000000000000000  0.0000000000000000   F   F   F
  0.2673826424442570  0.1338672849679914  0.0472185723358687   T   T   T
  0.1331714041519091  0.2674442718449288  0.0941579175508632   T   T   T
  0.0000014707332367 -0.0000001691448211  0.1409608376949162   T   T   T
  0.9999999999764526  0.2000000029901230  0.0000000000000000   F   F   F
  0.2660139486581274  0.3335990441912899  0.0475142622449265   T   T   T
  0.1336726192431314  0.0667439024758237  0.0939083227275197   T   T   T
 -0.0000671417187715  0.2009480916514891  0.1412487989695144   T   T   T
  0.2000000030136633  0.2000000029901230  0.0000000000000000   F   F   F
  0.0663983420899444  0.3335826803675767  0.0472548008943654   T   T   T
  0.3338458753627596  0.0667333729090515  0.0943421558131431   T   T   T
  0.2000755027113015  0.2001288684471204  0.1408593195999398   T   T   T
  0.2000000029691691  0.0000000000000000  0.0000000000000000   F   F   F
  0.0671777513758543  0.1334228835343021  0.0472526043867842   T   T   T
  0.3341768334855401  0.2668534637463603  0.0940743598703371   T   T   T
  0.2009816237143031  0.0000470270720799  0.1412526008788398   T   T   T
  0.4000000059383453  0.0000000000000000  0.0000000000000000   F   F   F
  0.6667127168503590  0.1337851161895116  0.0472276262816558   T   T   T
  0.5339863371064499  0.2674966073528851  0.0943103378458032   T   T   T
  0.4006910758603701  0.0000779159188916  0.1418476764650766   T   T   T
  0.4000000059828395  0.2000000029901230  0.0000000000000000   F   F   F
  0.6666665637459395  0.3333589793162555  0.0472455278833045   T   T   T
  0.5338802030356889  0.0664567867704369  0.0944353863540851   T   T   T
  0.4004518977697418  0.2005329812045364  0.1416595395620441   T   T   T
  0.6000000238523029  0.2000000029901230  0.0000000000000000   F   F   F
  0.4670466260097772  0.3333287225037174  0.0472295475026202   T   T   T
  0.7331562793261938  0.0673407874394765  0.0940720669251795   T   T   T
  0.5999548640756803  0.2000377552689926  0.1419070692859136   T   T   T
  0.6000000238758432  0.0000000000000000  0.0000000000000000   F   F   F
  0.4666344335819585  0.1330429529529045  0.0476056505492662   T   T   T
  0.7325386450872574  0.2665436955795678  0.0943102324417665   T   T   T
  0.5997595247813780 -0.0000329570837285  0.1419926290175018   T   T   T
  0.8000000119447250  0.0000000000000000  0.0000000000000000   F   F   F
  0.9332707652071736  0.2671323640732685  0.0943422323924690   T   T   T
  0.7998692424043600 -0.0000276916648733  0.1408640517971200   T   T   T
  0.7999999523200216  0.2000000029901230  0.0000000000000000   F   F   F
  0.9332600027666926  0.0669374543134241  0.0939094475700202   T   T   T
  0.7994683995168234  0.1999249193441533  0.1416610076260957   T   T   T
  0.8669953587123870  0.3336410531240482  0.0476019365585604   T   T   T
  0.8661375422570247  0.1335245863482747  0.0472195621144421   T   T   T
  0.0000000000209468  0.4000000059802389  0.0000000000000000   F   F   F
  0.2673855198751604  0.5336238550793808  0.0474848623107577   T   T   T
  0.1335073254308528  0.6664523309111023  0.0945378796813224   T   T   T
 -0.0000466853049793  0.4006605132629317  0.1418459829166493   T   T   T
  0.0000000000055138  0.6000000238188363  0.0000000000000000   F   F   F
  0.2662410760198707  0.7326282062591447  0.0474821931882187   T   T   T
  0.1329798329237675  0.4668760873306357  0.0941591672913381   T   T   T
  0.0000415338248820  0.5998039690708681  0.1419922554089161   T   T   T
  0.2000000178749772  0.6000000238188363  0.0000000000000000   F   F   F
  0.0675784268160352  0.7339975994431727  0.0475140435551718   T   T   T
  0.3335487688366163  0.4670695723106469  0.0945417177912465   T   T   T
  0.2000489636309311  0.6000494419806636  0.1419938148900232   T   T   T
  0.2000000029901230  0.4000000059802389  0.0000000000000000   F   F   F
  0.0663941494790659  0.5336186005700624  0.0473401195549898   T   T   T
  0.3333290259923255  0.6666980475358432  0.0946169770347837   T   T   T
  0.2002039582460837  0.4005109857001395  0.1416779839400659   T   T   T
  0.4000000059592921  0.4000000059802389  0.0000000000000000   F   F   F
  0.6663639192034760  0.5333726377741159  0.0476042637963522   T   T   T
  0.5331322273248007  0.6661396382335659  0.0941627587002692   T   T   T
  0.4001906991713203  0.4002553439544537  0.1419843288039127   T   T   T
  0.4000000357444407  0.6000000238188363  0.0000000000000000   F   F   F
  0.6664250151951924  0.7328269671568809  0.0472550828128492   T   T   T
  0.5325704191972402  0.4661619734048915  0.0944468164670239   T   T   T
  0.3999547668024608  0.6000387737595282  0.1419852944026476   T   T   T
  0.6000000238133225  0.6000000238188363  0.0000000000000000   F   F   F
  0.4663812089775306  0.7337658570608786  0.0474838538341960   T   T   T
  0.7334927193938917  0.4660379041001450  0.0943122703828874   T   T   T
  0.5994404783451036  0.5994323474551994  0.1418403160766130   T   T   T
  0.6000000238287555  0.4000000059802389  0.0000000000000000   F   F   F
  0.4663872480696533  0.5327950286477308  0.0473422945181521   T   T   T
  0.7329039792407527  0.6661844599503269  0.0943403934480845   T   T   T
  0.6000915771458628  0.4000531501690767  0.1419076100948193   T   T   T
  0.8000000118976374  0.4000000059802389  0.0000000000000000   F   F   F
  0.9326910599680401  0.6658463091982837  0.0940734703383890   T   T   T
  0.7999684759503637  0.3999242925808184  0.1419050048523152   T   T   T
  0.8000000118822044  0.6000000238188363  0.0000000000000000   F   F   F
  0.9335754584307436  0.4674664637994052  0.0944352331524415   T   T   T
  0.8000858473398473  0.5995780570876845  0.1416546032089714   T   T   T
  0.8664856385423214  0.7326288042407995  0.0472181861979541   T   T   T
  0.8662442652225930  0.5329688836705540  0.0472263703042131   T   T   T
  0.0000000000419007  0.8000000119604849  0.0000000000000000   F   F   F
  0.2671855649207941  0.9336036321948921  0.0472548702738223   T   T   T
  0.0000645139016741  0.7999224176199998  0.1408664451236748   T   T   T
  0.1342772082248866  0.8668403295576453  0.0941584267404235   T   T   T
  0.3339023290535822  0.8670420338392270  0.0941632180546837   T   T   T
  0.2000000030110698  0.8000000119604849  0.0000000000000000   F   F   F
  0.0662407706905863  0.9328206031115079  0.0472528516046073   T   T   T
  0.2002517889202415  0.7997580213776947  0.1416790768631399   T   T   T
  0.4000000059802389  0.8000000119604849  0.0000000000000000   F   F   F
  0.6664205175700845  0.9324317084267921  0.0475151674971985   T   T   T
  0.3999886267798077  0.7999646854819593  0.1419967546820544   T   T   T
  0.5329369194841611  0.8665300731103227  0.0945361487767650   T   T   T
  0.7325689528632022  0.8657317716059594  0.0941602137875720   T   T   T
  0.6000000238497023  0.8000000119604849  0.0000000000000000   F   F   F
  0.4672403317422926  0.9336268012461189  0.0473368795793531   T   T   T
  0.5995229729102513  0.7997978888070134  0.1416743014395874   T   T   T
  0.8000000119185842  0.8000000119604849  0.0000000000000000   F   F   F
  0.7991496012160011  0.7990915604734734  0.1412626951229657   T   T   T
  0.9330808463978600  0.8663314622462022  0.0939087381610510   T   T   T
  0.8665791692797407  0.9337638621974774  0.0472554655630135   T   T   T
  0.1724881606813123  0.0644453604485478  0.2001815324973914   T   T   T
  0.3993624713387008  0.3359281644819626  0.2080572568619679   T   T   T
  0.0642654561132136  0.1725453026776635  0.2001567711649887   T   T   T
  0.3362078534186074  0.3992464949687059  0.2079377736168639   T   T   T
  0.3260097641011551  0.0003159644588702  0.2357707040512796   T   T   T
  0.2679768311410237  0.0003521618962674  0.2078088005782701   T   T   T
  0.1718087283478314  0.1720290800624963  0.2317823605530538   T   T   T
  0.2419937231015012  0.2419665374473978  0.2063443706016692   T   T   T
 -0.0002420545789826  0.3258010797778181  0.2357545927552393   T   T   T
 -0.0000517538964833  0.2678226244842232  0.2077975465716906   T   T   T
  0.6646812575545408  0.0631233033380523  0.2079374848605092   T   T   T
  0.8904260039161546  0.3353796175154586  0.2053992157616166   T   T   T
  0.4448343533393068  0.1097548136561465  0.2054539480565197   T   T   T
  0.5701234514937213  0.1730105288304078  0.2099975126111894   T   T   T
  0.8270039997549457  0.3971979174041451  0.2100473058390539   T   T   T
  0.8292901196813064  0.0000388365647808  0.2318690197385622   T   T   T
  0.7590435510581351  0.0000026518424570  0.2064601345704599   T   T   T
  0.6823215934718142  0.1759153426318138  0.2428578880668873   T   T   T
  0.7396186105704556  0.2409565746939510  0.2148002817410066   T   T   T
  0.4937828521964807  0.3174348878144257  0.2432045179828733   T   T   T
  0.5014327814153694  0.2603004570727743  0.2150678810989459   T   T   T
  0.1728697795835913  0.5698072415530676  0.2097760221428130   T   T   T
  0.3971844793154527  0.8272932908891931  0.2098559357398329   T   T   T
  0.0628326050092455  0.6644001664849680  0.2077867056368250   T   T   T
  0.3354103288074864  0.8909069643409532  0.2054073185303534   T   T   T
  0.1093784822891217  0.4443916853236472  0.2054291064615393   T   T   T
  0.3177575108946609  0.4939750692631210  0.2429578455366597   T   T   T
  0.2603207791733658  0.5012267628730162  0.2148501898767135   T   T   T
  0.1757921955328312  0.6819492813792977  0.2425612829390394   T   T   T
  0.2408486155429168  0.7396350295409820  0.2145588211987029   T   T   T
  0.0003923123069699  0.8293879606648330  0.2318651905530238   T   T   T
 -0.0000384408039436  0.7589723847908495  0.2064511984692811   T   T   T
  0.6644764526638856  0.5548645616277477  0.2054160972968793   T   T   T
  0.8917634451875843  0.8278210712534643  0.2002492604906206   T   T   T
  0.4300348669205624  0.6026151091358880  0.2099582993062904   T   T   T
  0.5553099970342612  0.6644311509696590  0.2053930283348416   T   T   T
  0.8278448461024757  0.8915715918114644  0.2002348903918534   T   T   T
  0.6026003973237388  0.4297092563387395  0.2101511462617967   T   T   T
  0.8233894333081526  0.5060140283366706  0.2430081651113964   T   T   T
  0.7586077279084253  0.4983558871846551  0.2148974240292712   T   T   T
  0.6740221072956728  0.6737413062134775  0.2358027529962737   T   T   T
  0.7321390535917222  0.7319191422452721  0.2078584161191896   T   T   T
  0.5059126515953490  0.8234569759323386  0.2427347411608463   T   T   T
  0.4985513052481619  0.7587157911848836  0.2146608714309581   T   T   T
  0.9364876791498358  0.1083158236802225  0.2002211244396921   T   T   T
  0.9362852582106163  0.6012991864072632  0.2080199235929753   T   T   T
  0.1084686849312388  0.9366596344486902  0.2002050541153650   T   T   T
  0.6014316034583688  0.9365743255240928  0.2078937416461311   T   T   T
  0.1778875892349202  0.0004925864952297  0.1963663523035100   T   T   T
  0.3373938698966570  0.3371125244062023  0.2002027147941937   T   T   T
  0.0002136842592730  0.1777902364401910  0.1963594541362691   T   T   T
  0.3340359766300092  0.0002691817980113  0.2161648642475594   T   T   T
  0.1719448870402582  0.1720874964755102  0.2120162177086133   T   T   T
 -0.0001570654472600  0.3338777021804628  0.2161484790834471   T   T   T
  0.6638774977923247 -0.0001054472205212  0.2002671319248021   T   T   T
  0.8208735736316896  0.3307219948214675  0.2029401006917002   T   T   T
  0.5097225869434351  0.1793279279392614  0.2030152807944692   T   T   T
  0.8291023681402693  0.0000779116163721  0.2121029233275162   T   T   T
  0.6744271209731756  0.1709316744586812  0.2232396784595550   T   T   T
  0.4967294155184315  0.3254856774544936  0.2235927921076569   T   T   T
  0.1789746095570530  0.5091667906240677  0.2028811430704391   T   T   T
  0.3306972936419377  0.8213767655289949  0.2028272640812457   T   T   T
 -0.0006000525794135  0.6635719968321624  0.2002568713029077   T   T   T
  0.3256776745963245  0.4967959048154069  0.2233426314952066   T   T   T
  0.1709093258738804  0.6742194164245716  0.2229381697748639   T   T   T
  0.0003092119572855  0.8291583189924105  0.2120986889712029   T   T   T
  0.6689912904809279  0.4898923659574310  0.2029516674975576   T   T   T
  0.8223022766408979  0.8221535868991795  0.1964217319660435   T   T   T
  0.4904155525303260  0.6690123202146877  0.2028208585120902   T   T   T
  0.8285645716487288  0.5031949184040265  0.2233938463338095   T   T   T
  0.6660277732749614  0.6657908888438819  0.2161950754190271   T   T   T
  0.5031436496615190  0.8285891388613761  0.2231159283841665   T   T   T
 
  0.00000000E+00  0.00000000E+00  0.00000000E+00
  0.00000000E+00  0.00000000E+00  0.00000000E+00
  0.00000000E+00  0.00000000E+00  0.00000000E+00
  0.00000000E+00  0.00000000E+00  0.00000000E+00
  0.00000000E+00  0.00000000E+00  0.00000000E+00
  0.00000000E+00  0.00000000E+00  0.00000000E+00
  0.00000000E+00  0.00000000E+00  0.00000000E+00
  0.00000000E+00  0.00000000E+00  0.00000000E+00
  0.00000000E+00  0.00000000E+00  0.00000000E+00
  0.00000000E+00  0.00000000E+00  0.00000000E+00
  0.00000000E+00  0.00000000E+00  0.00000000E+00
  0.00000000E+00  0.00000000E+00  0.00000000E+00
  0.00000000E+00  0.00000000E+00  0.00000000E+00
  0.00000000E+00  0.00000000E+00  0.00000000E+00
  0.00000000E+00  0.00000000E+00  0.00000000E+00
  0.00000000E+00  0.00000000E+00  0.00000000E+00
  0.00000000E+00  0.00000000E+00  0.00000000E+00
  0.00000000E+00  0.00000000E+00  0.00000000E+00
  0.00000000E+00  0.00000000E+00  0.00000000E+00
  0.00000000E+00  0.00000000E+00  0.00000000E+00
  0.00000000E+00  0.00000000E+00  0.00000000E+00
  0.00000000E+00  0.00000000E+00  0.00000000E+00
  0.00000000E+00  0.00000000E+00  0.00000000E+00
  0.00000000E+00  0.00000000E+00  0.00000000E+00
  0.00000000E+00  0.00000000E+00  0.00000000E+00
  0.00000000E+00  0.00000000E+00  0.00000000E+00
  0.00000000E+00  0.00000000E+00  0.00000000E+00
  0.00000000E+00  0.00000000E+00  0.00000000E+00
  0.00000000E+00  0.00000000E+00  0.00000000E+00
  0.00000000E+00  0.00000000E+00  0.00000000E+00
  0.00000000E+00  0.00000000E+00  0.00000000E+00
  0.00000000E+00  0.00000000E+00  0.00000000E+00
  0.00000000E+00  0.00000000E+00  0.00000000E+00
  0.00000000E+00  0.00000000E+00  0.00000000E+00
  0.00000000E+00  0.00000000E+00  0.00000000E+00
  0.00000000E+00  0.00000000E+00  0.00000000E+00
  0.00000000E+00  0.00000000E+00  0.00000000E+00
  0.00000000E+00  0.00000000E+00  0.00000000E+00
  0.00000000E+00  0.00000000E+00  0.00000000E+00
  0.00000000E+00  0.00000000E+00  0.00000000E+00
  0.00000000E+00  0.00000000E+00  0.00000000E+00
  0.00000000E+00  0.00000000E+00  0.00000000E+00
  0.00000000E+00  0.00000000E+00  0.00000000E+00
  0.00000000E+00  0.00000000E+00  0.00000000E+00
  0.00000000E+00  0.00000000E+00  0.00000000E+00
  0.00000000E+00  0.00000000E+00  0.00000000E+00
  0.00000000E+00  0.00000000E+00  0.00000000E+00
  0.00000000E+00  0.00000000E+00  0.00000000E+00
  0.00000000E+00  0.00000000E+00  0.00000000E+00
  0.00000000E+00  0.00000000E+00  0.00000000E+00
  0.00000000E+00  0.00000000E+00  0.00000000E+00
  0.00000000E+00  0.00000000E+00  0.00000000E+00
  0.00000000E+00  0.00000000E+00  0.00000000E+00
  0.00000000E+00  0.00000000E+00  0.00000000E+00
  0.00000000E+00  0.00000000E+00  0.00000000E+00
  0.00000000E+00  0.00000000E+00  0.00000000E+00
  0.00000000E+00  0.00000000E+00  0.00000000E+00
  0.00000000E+00  0.00000000E+00  0.00000000E+00
  0.00000000E+00  0.00000000E+00  0.00000000E+00
  0.00000000E+00  0.00000000E+00  0.00000000E+00
  0.00000000E+00  0.00000000E+00  0.00000000E+00
  0.00000000E+00  0.00000000E+00  0.00000000E+00
  0.00000000E+00  0.00000000E+00  0.00000000E+00
  0.00000000E+00  0.00000000E+00  0.00000000E+00
  0.00000000E+00  0.00000000E+00  0.00000000E+00
  0.00000000E+00  0.00000000E+00  0.00000000E+00
  0.00000000E+00  0.00000000E+00  0.00000000E+00
  0.00000000E+00  0.00000000E+00  0.00000000E+00
  0.00000000E+00  0.00000000E+00  0.00000000E+00
  0.00000000E+00  0.00000000E+00  0.00000000E+00
  0.00000000E+00  0.00000000E+00  0.00000000E+00
  0.00000000E+00  0.00000000E+00  0.00000000E+00
  0.00000000E+00  0.00000000E+00  0.00000000E+00
  0.00000000E+00  0.00000000E+00  0.00000000E+00
  0.00000000E+00  0.00000000E+00  0.00000000E+00
  0.00000000E+00  0.00000000E+00  0.00000000E+00
  0.00000000E+00  0.00000000E+00  0.00000000E+00
  0.00000000E+00  0.00000000E+00  0.00000000E+00
  0.00000000E+00  0.00000000E+00  0.00000000E+00
  0.00000000E+00  0.00000000E+00  0.00000000E+00
  0.00000000E+00  0.00000000E+00  0.00000000E+00
  0.00000000E+00  0.00000000E+00  0.00000000E+00
  0.00000000E+00  0.00000000E+00  0.00000000E+00
  0.00000000E+00  0.00000000E+00  0.00000000E+00
  0.00000000E+00  0.00000000E+00  0.00000000E+00
  0.00000000E+00  0.00000000E+00  0.00000000E+00
  0.00000000E+00  0.00000000E+00  0.00000000E+00
  0.00000000E+00  0.00000000E+00  0.00000000E+00
  0.00000000E+00  0.00000000E+00  0.00000000E+00
  0.00000000E+00  0.00000000E+00  0.00000000E+00
  0.00000000E+00  0.00000000E+00  0.00000000E+00
  0.00000000E+00  0.00000000E+00  0.00000000E+00
  0.00000000E+00  0.00000000E+00  0.00000000E+00
  0.00000000E+00  0.00000000E+00  0.00000000E+00
  0.00000000E+00  0.00000000E+00  0.00000000E+00
  0.00000000E+00  0.00000000E+00  0.00000000E+00
  0.00000000E+00  0.00000000E+00  0.00000000E+00
  0.00000000E+00  0.00000000E+00  0.00000000E+00
  0.00000000E+00  0.00000000E+00  0.00000000E+00
  0.00000000E+00  0.00000000E+00  0.00000000E+00
  0.00000000E+00  0.00000000E+00  0.00000000E+00
  0.00000000E+00  0.00000000E+00  0.00000000E+00
  0.00000000E+00  0.00000000E+00  0.00000000E+00
  0.00000000E+00  0.00000000E+00  0.00000000E+00
  0.00000000E+00  0.00000000E+00  0.00000000E+00
  0.00000000E+00  0.00000000E+00  0.00000000E+00
  0.00000000E+00  0.00000000E+00  0.00000000E+00
  0.00000000E+00  0.00000000E+00  0.00000000E+00
  0.00000000E+00  0.00000000E+00  0.00000000E+00
  0.00000000E+00  0.00000000E+00  0.00000000E+00
  0.00000000E+00  0.00000000E+00  0.00000000E+00
  0.00000000E+00  0.00000000E+00  0.00000000E+00
  0.00000000E+00  0.00000000E+00  0.00000000E+00
  0.00000000E+00  0.00000000E+00  0.00000000E+00
  0.00000000E+00  0.00000000E+00  0.00000000E+00
  0.00000000E+00  0.00000000E+00  0.00000000E+00
  0.00000000E+00  0.00000000E+00  0.00000000E+00
  0.00000000E+00  0.00000000E+00  0.00000000E+00
  0.00000000E+00  0.00000000E+00  0.00000000E+00
  0.00000000E+00  0.00000000E+00  0.00000000E+00
  0.00000000E+00  0.00000000E+00  0.00000000E+00
  0.00000000E+00  0.00000000E+00  0.00000000E+00
  0.00000000E+00  0.00000000E+00  0.00000000E+00
  0.00000000E+00  0.00000000E+00  0.00000000E+00
  0.00000000E+00  0.00000000E+00  0.00000000E+00
  0.00000000E+00  0.00000000E+00  0.00000000E+00
  0.00000000E+00  0.00000000E+00  0.00000000E+00
  0.00000000E+00  0.00000000E+00  0.00000000E+00
  0.00000000E+00  0.00000000E+00  0.00000000E+00
  0.00000000E+00  0.00000000E+00  0.00000000E+00
  0.00000000E+00  0.00000000E+00  0.00000000E+00
  0.00000000E+00  0.00000000E+00  0.00000000E+00
  0.00000000E+00  0.00000000E+00  0.00000000E+00
  0.00000000E+00  0.00000000E+00  0.00000000E+00
  0.00000000E+00  0.00000000E+00  0.00000000E+00
  0.00000000E+00  0.00000000E+00  0.00000000E+00
  0.00000000E+00  0.00000000E+00  0.00000000E+00
  0.00000000E+00  0.00000000E+00  0.00000000E+00
  0.00000000E+00  0.00000000E+00  0.00000000E+00
  0.00000000E+00  0.00000000E+00  0.00000000E+00
  0.00000000E+00  0.00000000E+00  0.00000000E+00
  0.00000000E+00  0.00000000E+00  0.00000000E+00
  0.00000000E+00  0.00000000E+00  0.00000000E+00
  0.00000000E+00  0.00000000E+00  0.00000000E+00
  0.00000000E+00  0.00000000E+00  0.00000000E+00
  0.00000000E+00  0.00000000E+00  0.00000000E+00
  0.00000000E+00  0.00000000E+00  0.00000000E+00
  0.00000000E+00  0.00000000E+00  0.00000000E+00
  0.00000000E+00  0.00000000E+00  0.00000000E+00
  0.00000000E+00  0.00000000E+00  0.00000000E+00
  0.00000000E+00  0.00000000E+00  0.00000000E+00
  0.00000000E+00  0.00000000E+00  0.00000000E+00
  0.00000000E+00  0.00000000E+00  0.00000000E+00
  0.00000000E+00  0.00000000E+00  0.00000000E+00
  0.00000000E+00  0.00000000E+00  0.00000000E+00
  0.00000000E+00  0.00000000E+00  0.00000000E+00
  0.00000000E+00  0.00000000E+00  0.00000000E+00
  0.00000000E+00  0.00000000E+00  0.00000000E+00
  0.00000000E+00  0.00000000E+00  0.00000000E+00
  0.00000000E+00  0.00000000E+00  0.00000000E+00
  0.00000000E+00  0.00000000E+00  0.00000000E+00
  0.00000000E+00  0.00000000E+00  0.00000000E+00
  0.00000000E+00  0.00000000E+00  0.00000000E+00
  0.00000000E+00  0.00000000E+00  0.00000000E+00
  0.00000000E+00  0.00000000E+00  0.00000000E+00
  0.00000000E+00  0.00000000E+00  0.00000000E+00
  0.00000000E+00  0.00000000E+00  0.00000000E+00
  0.00000000E+00  0.00000000E+00  0.00000000E+00
  0.00000000E+00  0.00000000E+00  0.00000000E+00
  0.00000000E+00  0.00000000E+00  0.00000000E+00
  0.00000000E+00  0.00000000E+00  0.00000000E+00
  0.00000000E+00  0.00000000E+00  0.00000000E+00
