au_111_4_layers_5x5_with_h2o_6_bilayers_
   1.00000000000000     
    14.6976995467999991    0.0000000000000000    0.0000000000000000
    -7.3488497733999996   12.7285811846999994    0.0000000000000000
     0.0000000000000000    0.0000000000000000   49.2004013061999999
   Au   H    O 
   100    48    24
Selective dynamics
Direct
  0.0000000000000000  0.0000000000000000  0.0000000000000000   F   F   F
  0.2658543842597680  0.1336430474166832  0.0474139361908072   T   T   T
  0.1313037125809657  0.2634648495158203  0.0944130023878884   T   T   T
  0.0001418644546831  0.0001613712456816  0.1458613814917769   T   T   T
  0.9999999999764526  0.2000000029901230  0.0000000000000000   F   F   F
  0.2670637882972358  0.3336015710067244  0.0472050874988952   T   T   T
  0.1308355579047813  0.0638710514708123  0.0949890412694927   T   T   T
  0.9997108271096238  0.1978513344362298  0.1447032951506770   T   T   T
  0.2000000030136633  0.2000000029901230  0.0000000000000000   F   F   F
  0.0666628148591215  0.3336283121149748  0.0474723667931940   T   T   T
  0.3293606396269482  0.0654277492538924  0.0942120491283873   T   T   T
  0.1949517633311260  0.1955520505237089  0.1427303330292631   T   T   T
  0.2000000029691691  0.0000000000000000  0.0000000000000000   F   F   F
  0.0663549622551969  0.1336354262025381  0.0473938867324009   T   T   T
  0.3301081613886439  0.2654110963882701  0.0944492293957424   T   T   T
  0.1983065985867967  0.0006385129465514  0.1446872174312404   T   T   T
  0.4000000059383453  0.0000000000000000  0.0000000000000000   F   F   F
  0.6675737209132393  0.1339732879958646  0.0474954680907089   T   T   T
  0.5315683948224077  0.2661374993722490  0.0944525452056197   T   T   T
  0.3972967931435178  0.0011353973941155  0.1419439697870217   T   T   T
  0.4000000059828395  0.2000000029901230  0.0000000000000000   F   F   F
  0.6667200332749559  0.3333883007581520  0.0476678605404572   T   T   T
  0.5308219773518132  0.0665441869684713  0.0938994000492102   T   T   T
  0.3947977834575198  0.1971826603761002  0.1413743248631860   T   T   T
  0.6000000238523029  0.2000000029901230  0.0000000000000000   F   F   F
  0.4664025919731927  0.3325880270593586  0.0474978392172574   T   T   T
  0.7348191018945158  0.0648858601727440  0.0944513580990787   T   T   T
  0.6011124238576642  0.2001684964022274  0.1408628287431171   T   T   T
  0.6000000238758432  0.0000000000000000  0.0000000000000000   F   F   F
  0.4667926460580247  0.1339312466829341  0.0473208333750037   T   T   T
  0.7342358246262393  0.2656427025508279  0.0944663063676785   T   T   T
  0.5983129112811625  0.0010821914529870  0.1400613339313423   T   T   T
  0.8000000119447250  0.0000000000000000  0.0000000000000000   F   F   F
  0.9347518571641444  0.2640617592068253  0.0942068753569316   T   T   T
  0.8047070524709099  0.9995812465233556  0.1427444163825484   T   T   T
  0.7999999523200216  0.2000000029901230  0.0000000000000000   F   F   F
  0.9362897464102673  0.0671227568108890  0.0949981928097330   T   T   T
  0.8032606677548983  0.1978425485115238  0.1413848378689906   T   T   T
  0.8662444620273533  0.3330094419011829  0.0473080750620909   T   T   T
  0.8664595612006352  0.1322567782746802  0.0474104806003552   T   T   T
  0.0000000000209468  0.4000000059802389  0.0000000000000000   F   F   F
  0.2670527996680150  0.5337024108168364  0.0471851948359188   T   T   T
  0.1345846521954073  0.6693054090705317  0.0939382421986608   T   T   T
  0.9992485884155826  0.3963076094634133  0.1419670280942356   T   T   T
  0.0000000000055138  0.6000000238188363  0.0000000000000000   F   F   F
  0.2667068840599214  0.7330972373253886  0.0471792732641489   T   T   T
  0.1329155577695502  0.4661782624827566  0.0942688791627404   T   T   T
  0.9992736466609529  0.5976030332667932  0.1400166532155254   T   T   T
  0.2000000178749772  0.6000000238188363  0.0000000000000000   F   F   F
  0.0665761520796195  0.7330451297986329  0.0471970880493018   T   T   T
  0.3309935486594426  0.4654043624914266  0.0939454194570075   T   T   T
  0.1992606346610444  0.5997479664773380  0.1406846217570177   T   T   T
  0.2000000029901230  0.4000000059802389  0.0000000000000000   F   F   F
  0.0664514907056244  0.5329042118610232  0.0472930767372972   T   T   T
  0.3334094665732792  0.6667806884478722  0.0942385400851222   T   T   T
  0.1969891137426814  0.3945526371277666  0.1412477703510433   T   T   T
  0.4000000059592921  0.4000000059802389  0.0000000000000000   F   F   F
  0.6670926858740742  0.5332679922414769  0.0473155491835513   T   T   T
  0.5340417692056221  0.6668911531789306  0.0942526518048084   T   T   T
  0.4027840342775306  0.4018686185482423  0.1400877617347405   T   T   T
  0.4000000357444407  0.6000000238188363  0.0000000000000000   F   F   F
  0.6664726113771380  0.7331299472960637  0.0474572016554475   T   T   T
  0.5356972654530097  0.4693891254365496  0.0939070139528084   T   T   T
  0.4004261208353768  0.5996970249087283  0.1406666893933775   T   T   T
  0.6000000238133225  0.6000000238188363  0.0000000000000000   F   F   F
  0.4663673424596624  0.7334089039946647  0.0471797217131069   T   T   T
  0.7347284535405620  0.4687188060763532  0.0944326872953738   T   T   T
  0.6038565232525741  0.6031119091357695  0.1419638707127078   T   T   T
  0.6000000238287555  0.4000000059802389  0.0000000000000000   F   F   F
  0.4672033112752132  0.5335889949439547  0.0472857594334286   T   T   T
  0.7360092097447790  0.6707490624227006  0.0941883860143946   T   T   T
  0.5993200247660795  0.3994518744933799  0.1408508271243107   T   T   T
  0.8000000118976374  0.4000000059802389  0.0000000000000000   F   F   F
  0.9353429378191933  0.6701152823592196  0.0944197618563152   T   T   T
  0.8003687440831726  0.4013162766437262  0.1408875850991009   T   T   T
  0.8000000118822044  0.6000000238188363  0.0000000000000000   F   F   F
  0.9337922531293046  0.4644085091853185  0.0939093787654386   T   T   T
  0.8024377639481912  0.6057150118484884  0.1413343608102053   T   T   T
  0.8677745800083585  0.7342157612295708  0.0474100426806672   T   T   T
  0.8662414594935655  0.5336741857202938  0.0474941901034995   T   T   T
  0.0000000000419007  0.8000000119604849  0.0000000000000000   F   F   F
  0.2670074368381350  0.9335085029630719  0.0474663080348563   T   T   T
  0.0006862872005371  0.8053558104998046  0.1427387269099256   T   T   T
  0.1321690991272604  0.8689446846820488  0.0943834849705354   T   T   T
  0.3334421285842026  0.8674364700847761  0.0942393926706657   T   T   T
  0.2000000030110698  0.8000000119604849  0.0000000000000000   F   F   F
  0.0672355275298813  0.9337308501971435  0.0473770123219452   T   T   T
  0.1978026025827333  0.8034904400816032  0.1411963816241908   T   T   T
  0.4000000059802389  0.8000000119604849  0.0000000000000000   F   F   F
  0.6664871977884985  0.9335420179871292  0.0472074556825177   T   T   T
  0.4004992148412612  0.8008698450257299  0.1406651498251463   T   T   T
  0.5348100338324073  0.8658027943014019  0.0939401145039582   T   T   T
  0.7367295897396389  0.8680355192824294  0.0944094855887911   T   T   T
  0.6000000238497023  0.8000000119604849  0.0000000000000000   F   F   F
  0.4665682526628601  0.9337809303078402  0.0472779221430386   T   T   T
  0.6055894929229169  0.8025824439023452  0.1412283185030745   T   T   T
  0.8000000119185842  0.8000000119604849  0.0000000000000000   F   F   F
  0.8023297840913344  0.8020477457112705  0.1446818559189964   T   T   T
  0.9329723191043087  0.8692874886090891  0.0949927000437114   T   T   T
  0.8664666284865348  0.9327950144623287  0.0473909802302472   T   T   T
  0.1103831153684780  0.1728166283899242  0.2306520791763376   T   T   T
  0.0613161002648255  0.3953789695692578  0.2301630750959944   T   T   T
  0.1729522049425896  0.1099491169612818  0.2306047262153328   T   T   T
  0.3954356381058375  0.0606072290332023  0.2298999767806009   T   T   T
  0.1757983669042460  0.9992137357319706  0.1984412155281134   T   T   T
  0.2374574507925757  0.9994905261394038  0.2258644552196998   T   T   T
  0.2746434408282781  0.2743731950244452  0.1850996716856272   T   T   T
  0.2538138492611708  0.2534165768069556  0.2176556982728854   T   T   T
  0.9999683559834978  0.1764504133006213  0.1985421824634841   T   T   T
  0.0000825316648516  0.2376337523358600  0.2260497991530315   T   T   T
  0.6090414030980753  0.1621264315528634  0.2012111245634642   T   T   T
  0.5527684650861531  0.3909406224585936  0.2012434695346030   T   T   T
  0.4247524682195305  0.3185646654455994  0.2000958860177064   T   T   T
  0.6809557212030057  0.1060613645226383  0.1999706029113923   T   T   T
  0.8888713559978498  0.0628602784590413  0.2305973870664602   T   T   T
  0.7247064219951653  0.9997307954388290  0.1849653975206209   T   T   T
  0.7455493019499002  0.9999774900346665  0.2175441979190467   T   T   T
  0.8913017458339141  0.3444701515504818  0.1876332990865990   T   T   T
  0.7829782655742505  0.2746061450456025  0.2026026051493588   T   T   T
  0.4535650723608526  0.1090670451448332  0.1875599244392063   T   T   T
  0.4920059840433382  0.2173118703928907  0.2025794184259695   T   T   T
  0.3191451465128381  0.4244497166670129  0.1999930743020784   T   T   T
  0.1053420251055783  0.6799355878491369  0.1998321991871919   T   T   T
  0.0625841823285853  0.8884673428737102  0.2305562579587743   T   T   T
  0.1615235686316367  0.6080998225002077  0.2009951330294513   T   T   T
  0.3912456502054056  0.5525002327266932  0.2010028891848847   T   T   T
  0.1088733230456498  0.4522436328325838  0.1875828329103300   T   T   T
  0.2175515443962865  0.4914506892137993  0.2024256377510838   T   T   T
  0.3436053394174934  0.8906328132346815  0.1873814247466186   T   T   T
  0.2740809733748222  0.7820639765141024  0.2022766144167818   T   T   T
  0.9995959955879670  0.7244266906814332  0.1849329628295990   T   T   T
  0.9995194685677049  0.7451036826566479  0.2175070361638234   T   T   T
  0.8376811195248237  0.4464709325593788  0.2012767840771943   T   T   T
  0.6046156096131980  0.6657472477825905  0.2299463219585292   T   T   T
  0.5748142162877485  0.8939849350122131  0.1998927295774067   T   T   T
  0.4467867374882957  0.8378370691940233  0.2009429338334812   T   T   T
  0.6655818974268470  0.6047436102100221  0.2299612525639034   T   T   T
  0.8934094214436499  0.5743994911810901  0.1999514262887843   T   T   T
  0.6553850847529574  0.5464102755462932  0.1875610122634512   T   T   T
  0.7249369189926469  0.5076255761674773  0.2025586441048475   T   T   T
  0.8240023105581074  0.8243619170269696  0.1984656828999860   T   T   T
  0.7625638937714356  0.7627407524892149  0.2258811065311619   T   T   T
  0.5470050223242069  0.6557192148885278  0.1874780310538213   T   T   T
  0.5079301073252225  0.7252317842755289  0.2023603939851171   T   T   T
  0.9393602781238357  0.3345449037040495  0.2301648682799069   T   T   T
  0.9372078969649920  0.8261211119648948  0.2305607453466507   T   T   T
  0.3343062122831668  0.9385810956678355  0.2298741804465649   T   T   T
  0.8263048904138941  0.9374736917642679  0.2306109829565202   T   T   T
  0.1713101334564016  0.9992828253708694  0.2182991822248681   T   T   T
  0.3074216305570303  0.3070025258214031  0.2025635923734157   T   T   T
  0.9998268191852233  0.1715876169634569  0.2183992341020087   T   T   T
  0.3329612857979427  0.9996015560776357  0.2379668256282059   T   T   T
  0.1791592193766718  0.1787943314369755  0.2354805858156652   T   T   T
  0.0002976569505790  0.3330918206593267  0.2382860031624006   T   T   T
  0.6919689409017877  0.9998702382942852  0.2024120977048938   T   T   T
  0.8544975971763975  0.3419751003555618  0.2045217512678121   T   T   T
  0.4880370066279909  0.1458285207930956  0.2044398528415456   T   T   T
  0.8200231792410335  0.0001222787148691  0.2354218105350014   T   T   T
  0.6792748814503824  0.1723297844879781  0.1957325781525014   T   T   T
  0.4928414562454222  0.3206263239053158  0.1957873303718571   T   T   T
  0.1460391468276470  0.4873212939564908  0.2043663555235966   T   T   T
  0.3414291330816397  0.8535702242947778  0.2041929482280054   T   T   T
  0.9993573246543477  0.6914929805407866  0.2023778227438910   T   T   T
  0.3210826000860578  0.4923643856981599  0.1955535303793638   T   T   T
  0.1714315902148513  0.6781456551161256  0.1954551616640430   T   T   T
  0.9997587055263750  0.8196805177527935  0.2353784396974135   T   T   T
  0.6576107376824112  0.5118956606594338  0.2044399127072936   T   T   T
  0.8286058343814346  0.8287767587656560  0.2183268790866606   T   T   T
  0.5120463959374106  0.6578389695473135  0.2042827540285259   T   T   T
  0.8272343994559961  0.5062872215324532  0.1957402125021446   T   T   T
  0.6671050416315936  0.6672655068358395  0.2380122393272970   T   T   T
  0.5069479409810000  0.8278472361853204  0.1955072546814449   T   T   T
 
  0.00000000E+00  0.00000000E+00  0.00000000E+00
  0.00000000E+00  0.00000000E+00  0.00000000E+00
  0.00000000E+00  0.00000000E+00  0.00000000E+00
  0.00000000E+00  0.00000000E+00  0.00000000E+00
  0.00000000E+00  0.00000000E+00  0.00000000E+00
  0.00000000E+00  0.00000000E+00  0.00000000E+00
  0.00000000E+00  0.00000000E+00  0.00000000E+00
  0.00000000E+00  0.00000000E+00  0.00000000E+00
  0.00000000E+00  0.00000000E+00  0.00000000E+00
  0.00000000E+00  0.00000000E+00  0.00000000E+00
  0.00000000E+00  0.00000000E+00  0.00000000E+00
  0.00000000E+00  0.00000000E+00  0.00000000E+00
  0.00000000E+00  0.00000000E+00  0.00000000E+00
  0.00000000E+00  0.00000000E+00  0.00000000E+00
  0.00000000E+00  0.00000000E+00  0.00000000E+00
  0.00000000E+00  0.00000000E+00  0.00000000E+00
  0.00000000E+00  0.00000000E+00  0.00000000E+00
  0.00000000E+00  0.00000000E+00  0.00000000E+00
  0.00000000E+00  0.00000000E+00  0.00000000E+00
  0.00000000E+00  0.00000000E+00  0.00000000E+00
  0.00000000E+00  0.00000000E+00  0.00000000E+00
  0.00000000E+00  0.00000000E+00  0.00000000E+00
  0.00000000E+00  0.00000000E+00  0.00000000E+00
  0.00000000E+00  0.00000000E+00  0.00000000E+00
  0.00000000E+00  0.00000000E+00  0.00000000E+00
  0.00000000E+00  0.00000000E+00  0.00000000E+00
  0.00000000E+00  0.00000000E+00  0.00000000E+00
  0.00000000E+00  0.00000000E+00  0.00000000E+00
  0.00000000E+00  0.00000000E+00  0.00000000E+00
  0.00000000E+00  0.00000000E+00  0.00000000E+00
  0.00000000E+00  0.00000000E+00  0.00000000E+00
  0.00000000E+00  0.00000000E+00  0.00000000E+00
  0.00000000E+00  0.00000000E+00  0.00000000E+00
  0.00000000E+00  0.00000000E+00  0.00000000E+00
  0.00000000E+00  0.00000000E+00  0.00000000E+00
  0.00000000E+00  0.00000000E+00  0.00000000E+00
  0.00000000E+00  0.00000000E+00  0.00000000E+00
  0.00000000E+00  0.00000000E+00  0.00000000E+00
  0.00000000E+00  0.00000000E+00  0.00000000E+00
  0.00000000E+00  0.00000000E+00  0.00000000E+00
  0.00000000E+00  0.00000000E+00  0.00000000E+00
  0.00000000E+00  0.00000000E+00  0.00000000E+00
  0.00000000E+00  0.00000000E+00  0.00000000E+00
  0.00000000E+00  0.00000000E+00  0.00000000E+00
  0.00000000E+00  0.00000000E+00  0.00000000E+00
  0.00000000E+00  0.00000000E+00  0.00000000E+00
  0.00000000E+00  0.00000000E+00  0.00000000E+00
  0.00000000E+00  0.00000000E+00  0.00000000E+00
  0.00000000E+00  0.00000000E+00  0.00000000E+00
  0.00000000E+00  0.00000000E+00  0.00000000E+00
  0.00000000E+00  0.00000000E+00  0.00000000E+00
  0.00000000E+00  0.00000000E+00  0.00000000E+00
  0.00000000E+00  0.00000000E+00  0.00000000E+00
  0.00000000E+00  0.00000000E+00  0.00000000E+00
  0.00000000E+00  0.00000000E+00  0.00000000E+00
  0.00000000E+00  0.00000000E+00  0.00000000E+00
  0.00000000E+00  0.00000000E+00  0.00000000E+00
  0.00000000E+00  0.00000000E+00  0.00000000E+00
  0.00000000E+00  0.00000000E+00  0.00000000E+00
  0.00000000E+00  0.00000000E+00  0.00000000E+00
  0.00000000E+00  0.00000000E+00  0.00000000E+00
  0.00000000E+00  0.00000000E+00  0.00000000E+00
  0.00000000E+00  0.00000000E+00  0.00000000E+00
  0.00000000E+00  0.00000000E+00  0.00000000E+00
  0.00000000E+00  0.00000000E+00  0.00000000E+00
  0.00000000E+00  0.00000000E+00  0.00000000E+00
  0.00000000E+00  0.00000000E+00  0.00000000E+00
  0.00000000E+00  0.00000000E+00  0.00000000E+00
  0.00000000E+00  0.00000000E+00  0.00000000E+00
  0.00000000E+00  0.00000000E+00  0.00000000E+00
  0.00000000E+00  0.00000000E+00  0.00000000E+00
  0.00000000E+00  0.00000000E+00  0.00000000E+00
  0.00000000E+00  0.00000000E+00  0.00000000E+00
  0.00000000E+00  0.00000000E+00  0.00000000E+00
  0.00000000E+00  0.00000000E+00  0.00000000E+00
  0.00000000E+00  0.00000000E+00  0.00000000E+00
  0.00000000E+00  0.00000000E+00  0.00000000E+00
  0.00000000E+00  0.00000000E+00  0.00000000E+00
  0.00000000E+00  0.00000000E+00  0.00000000E+00
  0.00000000E+00  0.00000000E+00  0.00000000E+00
  0.00000000E+00  0.00000000E+00  0.00000000E+00
  0.00000000E+00  0.00000000E+00  0.00000000E+00
  0.00000000E+00  0.00000000E+00  0.00000000E+00
  0.00000000E+00  0.00000000E+00  0.00000000E+00
  0.00000000E+00  0.00000000E+00  0.00000000E+00
  0.00000000E+00  0.00000000E+00  0.00000000E+00
  0.00000000E+00  0.00000000E+00  0.00000000E+00
  0.00000000E+00  0.00000000E+00  0.00000000E+00
  0.00000000E+00  0.00000000E+00  0.00000000E+00
  0.00000000E+00  0.00000000E+00  0.00000000E+00
  0.00000000E+00  0.00000000E+00  0.00000000E+00
  0.00000000E+00  0.00000000E+00  0.00000000E+00
  0.00000000E+00  0.00000000E+00  0.00000000E+00
  0.00000000E+00  0.00000000E+00  0.00000000E+00
  0.00000000E+00  0.00000000E+00  0.00000000E+00
  0.00000000E+00  0.00000000E+00  0.00000000E+00
  0.00000000E+00  0.00000000E+00  0.00000000E+00
  0.00000000E+00  0.00000000E+00  0.00000000E+00
  0.00000000E+00  0.00000000E+00  0.00000000E+00
  0.00000000E+00  0.00000000E+00  0.00000000E+00
  0.00000000E+00  0.00000000E+00  0.00000000E+00
  0.00000000E+00  0.00000000E+00  0.00000000E+00
  0.00000000E+00  0.00000000E+00  0.00000000E+00
  0.00000000E+00  0.00000000E+00  0.00000000E+00
  0.00000000E+00  0.00000000E+00  0.00000000E+00
  0.00000000E+00  0.00000000E+00  0.00000000E+00
  0.00000000E+00  0.00000000E+00  0.00000000E+00
  0.00000000E+00  0.00000000E+00  0.00000000E+00
  0.00000000E+00  0.00000000E+00  0.00000000E+00
  0.00000000E+00  0.00000000E+00  0.00000000E+00
  0.00000000E+00  0.00000000E+00  0.00000000E+00
  0.00000000E+00  0.00000000E+00  0.00000000E+00
  0.00000000E+00  0.00000000E+00  0.00000000E+00
  0.00000000E+00  0.00000000E+00  0.00000000E+00
  0.00000000E+00  0.00000000E+00  0.00000000E+00
  0.00000000E+00  0.00000000E+00  0.00000000E+00
  0.00000000E+00  0.00000000E+00  0.00000000E+00
  0.00000000E+00  0.00000000E+00  0.00000000E+00
  0.00000000E+00  0.00000000E+00  0.00000000E+00
  0.00000000E+00  0.00000000E+00  0.00000000E+00
  0.00000000E+00  0.00000000E+00  0.00000000E+00
  0.00000000E+00  0.00000000E+00  0.00000000E+00
  0.00000000E+00  0.00000000E+00  0.00000000E+00
  0.00000000E+00  0.00000000E+00  0.00000000E+00
  0.00000000E+00  0.00000000E+00  0.00000000E+00
  0.00000000E+00  0.00000000E+00  0.00000000E+00
  0.00000000E+00  0.00000000E+00  0.00000000E+00
  0.00000000E+00  0.00000000E+00  0.00000000E+00
  0.00000000E+00  0.00000000E+00  0.00000000E+00
  0.00000000E+00  0.00000000E+00  0.00000000E+00
  0.00000000E+00  0.00000000E+00  0.00000000E+00
  0.00000000E+00  0.00000000E+00  0.00000000E+00
  0.00000000E+00  0.00000000E+00  0.00000000E+00
  0.00000000E+00  0.00000000E+00  0.00000000E+00
  0.00000000E+00  0.00000000E+00  0.00000000E+00
  0.00000000E+00  0.00000000E+00  0.00000000E+00
  0.00000000E+00  0.00000000E+00  0.00000000E+00
  0.00000000E+00  0.00000000E+00  0.00000000E+00
  0.00000000E+00  0.00000000E+00  0.00000000E+00
  0.00000000E+00  0.00000000E+00  0.00000000E+00
  0.00000000E+00  0.00000000E+00  0.00000000E+00
  0.00000000E+00  0.00000000E+00  0.00000000E+00
  0.00000000E+00  0.00000000E+00  0.00000000E+00
  0.00000000E+00  0.00000000E+00  0.00000000E+00
  0.00000000E+00  0.00000000E+00  0.00000000E+00
  0.00000000E+00  0.00000000E+00  0.00000000E+00
  0.00000000E+00  0.00000000E+00  0.00000000E+00
  0.00000000E+00  0.00000000E+00  0.00000000E+00
  0.00000000E+00  0.00000000E+00  0.00000000E+00
  0.00000000E+00  0.00000000E+00  0.00000000E+00
  0.00000000E+00  0.00000000E+00  0.00000000E+00
  0.00000000E+00  0.00000000E+00  0.00000000E+00
  0.00000000E+00  0.00000000E+00  0.00000000E+00
  0.00000000E+00  0.00000000E+00  0.00000000E+00
  0.00000000E+00  0.00000000E+00  0.00000000E+00
  0.00000000E+00  0.00000000E+00  0.00000000E+00
  0.00000000E+00  0.00000000E+00  0.00000000E+00
  0.00000000E+00  0.00000000E+00  0.00000000E+00
  0.00000000E+00  0.00000000E+00  0.00000000E+00
  0.00000000E+00  0.00000000E+00  0.00000000E+00
  0.00000000E+00  0.00000000E+00  0.00000000E+00
  0.00000000E+00  0.00000000E+00  0.00000000E+00
  0.00000000E+00  0.00000000E+00  0.00000000E+00
  0.00000000E+00  0.00000000E+00  0.00000000E+00
  0.00000000E+00  0.00000000E+00  0.00000000E+00
  0.00000000E+00  0.00000000E+00  0.00000000E+00
  0.00000000E+00  0.00000000E+00  0.00000000E+00
  0.00000000E+00  0.00000000E+00  0.00000000E+00
  0.00000000E+00  0.00000000E+00  0.00000000E+00
  0.00000000E+00  0.00000000E+00  0.00000000E+00
  0.00000000E+00  0.00000000E+00  0.00000000E+00
  0.00000000E+00  0.00000000E+00  0.00000000E+00
