au_111_4_layers_5x5_with_h2o_6_bilayers_
   1.00000000000000     
    14.6976995467999991    0.0000000000000000    0.0000000000000000
    -7.3488497733999996   12.7285811846999994    0.0000000000000000
     0.0000000000000000    0.0000000000000000   49.2004013061999999
   Au   H    O 
   100   240   120
Selective dynamics
Direct
  0.0000000000000000  0.0000000000000000  0.0000000000000000   F   F   F
  0.2665400046097801  0.1334602988836906  0.0474974923060429   T   T   T
  0.1336863114556834  0.2665215808287229  0.0943524170007066   T   T   T
  0.9999261155989885  0.9999532374544629  0.1430197010488428   T   T   T
  0.9999999999764526  0.2000000029901230  0.0000000000000000   F   F   F
  0.2670777045558168  0.3335580707688450  0.0474163021896032   T   T   T
  0.1327534393675904  0.0666427668701672  0.0944706345754938   T   T   T
  0.0003961529429901  0.2000600570390390  0.1418675610129796   T   T   T
  0.2000000030136633  0.2000000029901230  0.0000000000000000   F   F   F
  0.0667671578634028  0.3333276806721841  0.0475327650884410   T   T   T
  0.3332028330786372  0.0670513360125256  0.0943107061348485   T   T   T
  0.1994192588257206  0.1991063915937161  0.1425953857296776   T   T   T
  0.2000000029691691  0.0000000000000000  0.0000000000000000   F   F   F
  0.0665593248579768  0.1334688483579427  0.0474405838148186   T   T   T
  0.3328895854261944  0.2668650194837880  0.0945013281255385   T   T   T
  0.1997478040198217  0.9997916454372842  0.1418594163585567   T   T   T
  0.4000000059383453  0.0000000000000000  0.0000000000000000   F   F   F
  0.6666130299000272  0.1332703799585033  0.0475316272747008   T   T   T
  0.5327338541336246  0.2664067374269052  0.0944096967061228   T   T   T
  0.3988899357140312  0.0000701288267777  0.1422534845339314   T   T   T
  0.4000000059828395  0.2000000029901230  0.0000000000000000   F   F   F
  0.6667018716456496  0.3333435829037512  0.0476382126141814   T   T   T
  0.5324070459448933  0.0666444100632830  0.0942850030598095   T   T   T
  0.3990986669211480  0.2004447393124309  0.1423154899314198   T   T   T
  0.6000000238523029  0.2000000029901230  0.0000000000000000   F   F   F
  0.4667091306840945  0.3334827080777103  0.0475324911778756   T   T   T
  0.7332790787187449  0.0660834049427166  0.0945173938171564   T   T   T
  0.6005776843305384  0.2003052719878440  0.1419653112028527   T   T   T
  0.6000000238758432  0.0000000000000000  0.0000000000000000   F   F   F
  0.4667745337533447  0.1336853663419433  0.0473191036300094   T   T   T
  0.7336112000652051  0.2663376991724249  0.0944226197015183   T   T   T
  0.5985378113826343  0.0001178886638797  0.1417960269807352   T   T   T
  0.8000000119447250  0.0000000000000000  0.0000000000000000   F   F   F
  0.9330306650177675  0.2661612218330944  0.0943191998150255   T   T   T
  0.8009256413126877  0.0003158830076870  0.1426068919650447   T   T   T
  0.7999999523200216  0.2000000029901230  0.0000000000000000   F   F   F
  0.9334393325121368  0.0661427897305842  0.0944787553561497   T   T   T
  0.7997179203814255  0.1987819964519204  0.1423208255398194   T   T   T
  0.8663459675852607  0.3331019040462380  0.0473222570975338   T   T   T
  0.8665829720029024  0.1330737389327794  0.0474984624622152   T   T   T
  0.0000000000209468  0.4000000059802389  0.0000000000000000   F   F   F
  0.2664147626668480  0.5331975290856192  0.0474394517315915   T   T   T
  0.1334677821632297  0.6666947894394042  0.0942873793598906   T   T   T
  0.9999971871243645  0.3988275832849908  0.1422745978631355   T   T   T
  0.0000000000055138  0.6000000238188363  0.0000000000000000   F   F   F
  0.2667626173516879  0.7335706206441444  0.0474373631977301   T   T   T
  0.1334517537704656  0.4663098703251549  0.0946157599216022   T   T   T
  0.9998795365320632  0.5984173743044394  0.1417993063763561   T   T   T
  0.2000000178749772  0.6000000238188363  0.0000000000000000   F   F   F
  0.0664387395811161  0.7329243112730950  0.0474171674157589   T   T   T
  0.3333207626816943  0.4668975583802748  0.0942852273375649   T   T   T
  0.2003052270463073  0.6006899295140258  0.1420513044990770   T   T   T
  0.2000000029901230  0.4000000059802389  0.0000000000000000   F   F   F
  0.0667836434210685  0.5330359346999884  0.0474863810345880   T   T   T
  0.3332747646617804  0.6666685726764641  0.0942958147791941   T   T   T
  0.2007344336710375  0.3989551976844226  0.1423395522652555   T   T   T
  0.4000000059592921  0.4000000059802389  0.0000000000000000   F   F   F
  0.6669325765103551  0.5332482694858740  0.0473235901301479   T   T   T
  0.5336826694728600  0.6671665164091181  0.0946130198800432   T   T   T
  0.4016223431681212  0.4015651075280644  0.1417915693806933   T   T   T
  0.4000000357444407  0.6000000238188363  0.0000000000000000   F   F   F
  0.6666462321829343  0.7334762721860741  0.0475366718979160   T   T   T
  0.5343399242827758  0.4677400322133991  0.0942934916773339   T   T   T
  0.3993013292180905  0.5996528300352608  0.1420515276917769   T   T   T
  0.6000000238133225  0.6000000238188363  0.0000000000000000   F   F   F
  0.4667792611101049  0.7332188857063286  0.0474402356607584   T   T   T
  0.7336248259986959  0.4672452954531181  0.0944236666406155   T   T   T
  0.6012118950900813  0.6012152697237241  0.1422818032478190   T   T   T
  0.6000000238287555  0.4000000059802389  0.0000000000000000   F   F   F
  0.4669964422305810  0.5337706522200776  0.0474793164621232   T   T   T
  0.7338575028475205  0.6668871825020233  0.0943222352313668   T   T   T
  0.5996872676183855  0.3994349504268655  0.1419688866323057   T   T   T
  0.8000000118976374  0.4000000059802389  0.0000000000000000   F   F   F
  0.9339187855519526  0.6671809908146074  0.0945181369939689   T   T   T
  0.7997437851289817  0.4003308107105923  0.1419787930704004   T   T   T
  0.8000000118822044  0.6000000238188363  0.0000000000000000   F   F   F
  0.9333093867072151  0.4656850952221205  0.0942929795108327   T   T   T
  0.8012746180371977  0.6009404357254908  0.1423275805729034   T   T   T
  0.8669110622435667  0.7334758741361185  0.0475003451445772   T   T   T
  0.8667740738793981  0.5333368304861068  0.0475385570607543   T   T   T
  0.0000000000419007  0.8000000119604849  0.0000000000000000   F   F   F
  0.2665636754102110  0.9332022983672630  0.0475305089091975   T   T   T
  0.9998027366698281  0.8006702254272113  0.1426089736311056   T   T   T
  0.1328852138098000  0.8664059348510378  0.0943515948156559   T   T   T
  0.3328461571636083  0.8665221931109244  0.0946108715069727   T   T   T
  0.2000000030110698  0.8000000119604849  0.0000000000000000   F   F   F
  0.0669385616178459  0.9334626040958369  0.0474395059085850   T   T   T
  0.1982882238952612  0.7993414005232040  0.1423328685182881   T   T   T
  0.4000000059802389  0.8000000119604849  0.0000000000000000   F   F   F
  0.6664785269120301  0.9335633549800377  0.0474259834427144   T   T   T
  0.4003729334575823  0.7996834288595238  0.1420473531186843   T   T   T
  0.5331983499334711  0.8664541710557501  0.0942952669736883   T   T   T
  0.7335533776533723  0.8671733876691476  0.0943648855316468   T   T   T
  0.6000000238497023  0.8000000119604849  0.0000000000000000   F   F   F
  0.4662663506613640  0.9332396839095694  0.0474854705321164   T   T   T
  0.6010815647126790  0.8017599214589879  0.1423371642464630   T   T   T
  0.8000000119185842  0.8000000119604849  0.0000000000000000   F   F   F
  0.8000466041172913  0.8002662780306551  0.1418791231181089   T   T   T
  0.9339207194273769  0.8672906645377836  0.0944732685848066   T   T   T
  0.8665468666557672  0.9330758667299293  0.0474442609209902   T   T   T
  0.1668376957503312  0.0630995762080815  0.2953212419441940   T   T   T
  0.1670934333097449  0.0636229026139858  0.4472902720960263   T   T   T
  0.3967539636139605  0.3335779421632239  0.2945408941968211   T   T   T
  0.3968771299846310  0.3337298760430372  0.4466722056535914   T   T   T
  0.1032762726886531  0.1665204005823426  0.2196642188575737   T   T   T
  0.1035765649120890  0.1667943482574543  0.3712024705876971   T   T   T
  0.1036528051208165  0.1671015636424755  0.5237675032067415   T   T   T
  0.0626981176891803  0.3941087581528464  0.2181614650319403   T   T   T
  0.0633237267203484  0.3967308947051222  0.3703532042808746   T   T   T
  0.0637751588321933  0.3979839753015781  0.5221255142004040   T   T   T
  0.1664761636957621  0.1033284014878291  0.2196577996239455   T   T   T
  0.1667956215005972  0.1035739947885617  0.3712052575116616   T   T   T
  0.1670919074031545  0.1036620349796280  0.5237698923794838   T   T   T
  0.3939681140899509  0.0625998433653976  0.2181579053000462   T   T   T
  0.3967704337934421  0.0633513663731762  0.3703429122841300   T   T   T
  0.3979751288451112  0.0637677467958255  0.5221230068400118   T   T   T
  0.0630703111607573  0.1668094502657880  0.2953162924232657   T   T   T
  0.0636317201805454  0.1671015955158879  0.4472868355249773   T   T   T
  0.3336331536345511  0.3967396990589336  0.2945573391887280   T   T   T
  0.3337410132500693  0.3968726126405215  0.4466755773525861   T   T   T
  0.1664702367890598  0.9988762394181521  0.1875479849731363   T   T   T
  0.1700119821433148  0.9999968203382537  0.3382164351245578   T   T   T
  0.1698950690881134  0.0004139887492087  0.4903026838084372   T   T   T
  0.2329300127515594  0.9991951362083853  0.2139262413793332   T   T   T
  0.2334832154306383  0.0000903194130188  0.3653618244840118   T   T   T
  0.2341202725557778  0.0003800683086297  0.5175510510040695   T   T   T
  0.3240803256921652  0.3243917528194515  0.1864587712056434   T   T   T
  0.3290243124266112  0.3289807720582445  0.3378244596684965   T   T   T
  0.3292492626768038  0.3292526076885807  0.4898522747427094   T   T   T
  0.2632102504257077  0.2633081983194572  0.2139152906217490   T   T   T
  0.2662563257118364  0.2662403178478314  0.3652747790874002   T   T   T
  0.2665528550283298  0.2665609239815225  0.5175990743405094   T   T   T
  0.9989688344451437  0.1666475931209774  0.1875481658030367   T   T   T
  0.9999631038494456  0.1699739100622253  0.3382099929572320   T   T   T
  0.0004107637193798  0.1699068135858113  0.4902972068806832   T   T   T
  0.9992193321629159  0.2330449826428591  0.2139306119357087   T   T   T
  0.0000555837371508  0.2334494707710419  0.3653547790069211   T   T   T
  0.0003722056475581  0.2341299137934740  0.5175457215589887   T   T   T
  0.3283481558485661  0.9996392028220669  0.2615651564301515   T   T   T
  0.3285463664755781  0.0004431765920074  0.4134712751778267   T   T   T
  0.2662233845236130  0.9998030046521436  0.2891006151862570   T   T   T
  0.2664693294281903  0.0005469335405053  0.4410741654120258   T   T   T
  0.1700449398814072  0.1700563467881011  0.2625194183885640   T   T   T
  0.1705578351729287  0.1705527816762284  0.4142484889086546   T   T   T
  0.2334114961462461  0.2334007414032939  0.2896934448767539   T   T   T
  0.2337912125432098  0.2337831718831680  0.4414812538924409   T   T   T
  0.9996885672471265  0.3283967706759299  0.2615678379814099   T   T   T
  0.0004113338058218  0.3285330893314011  0.4134656256890921   T   T   T
  0.9997558411584890  0.2661830560748299  0.2890968697878478   T   T   T
  0.0005477819446966  0.2664785003278993  0.4410691584926738   T   T   T
  0.6659893883815542  0.0629982127466064  0.2945959364083919   T   T   T
  0.6671712621300543  0.0635611583534512  0.4466858188016403   T   T   T
  0.8960760567320776  0.3327997105452312  0.2942822026862686   T   T   T
  0.8971675169943936  0.3335450036189727  0.4460549845556159   T   T   T
  0.4365007709695519  0.1035483163771431  0.2942798715508133   T   T   T
  0.4370659010292925  0.1040311343590972  0.4460268173315853   T   T   T
  0.6022243948982364  0.1659855912285906  0.2177291583314584   T   T   T
  0.6036547391030638  0.1668403603175719  0.3702164254958262   T   T   T
  0.6035161897834698  0.1671276729261777  0.5220330484545244   T   T   T
  0.5629463992425272  0.3964876478920800  0.2176657621416851   T   T   T
  0.5632846048955926  0.3965003455236698  0.3702017803225459   T   T   T
  0.5640146979416514  0.3969637501620653  0.5220125999623235   T   T   T
  0.4362837961050587  0.3327822743585074  0.2178838959954703   T   T   T
  0.4366970543524786  0.3330677792890100  0.3703875871081905   T   T   T
  0.4369557469211500  0.3332481578789910  0.5225571193545662   T   T   T
  0.6658592178277800  0.1029958009053900  0.2179232021283610   T   T   T
  0.6670835965087463  0.1036840503843237  0.3704090253826848   T   T   T
  0.6673073873156596  0.1038374326164373  0.5225662602134875   T   T   T
  0.8948673180893110  0.0624747988461891  0.2197170038135283   T   T   T
  0.8966017478123405  0.0632937280994383  0.3712196414353386   T   T   T
  0.8972471119106018  0.0638776604596885  0.5237755310875727   T   T   T
  0.5629431971282699  0.1666889938146880  0.2941574415384522   T   T   T
  0.5637631993967958  0.1669928101014548  0.4459495701252081   T   T   T
  0.8329697938273029  0.3961415407101256  0.2941463628523096   T   T   T
  0.8340913807333621  0.3971644591823846  0.4459560962460927   T   T   T
  0.6740724958326112  0.9991017346119264  0.1865082307916026   T   T   T
  0.6710581093461769  0.0000231561444863  0.3378747574258796   T   T   T
  0.6715729188548565  0.0002730914656652  0.4898752826800461   T   T   T
  0.7350688212544370  0.9992722156885137  0.2139875264496922   T   T   T
  0.7339768103372677  0.0000892570748050  0.3653134559086197   T   T   T
  0.7343051442460293  0.0003281164310351  0.5176235860507674   T   T   T
  0.8290381456240397  0.3258161975570246  0.1858253303143158   T   T   T
  0.8295277466841924  0.3295704787855342  0.3372766222427188   T   T   T
  0.8302838001227926  0.3303437374745926  0.4887173672418896   T   T   T
  0.7637288159512110  0.2633036853008051  0.2126449686358214   T   T   T
  0.7667377222113174  0.2667975702172996  0.3646184427820671   T   T   T
  0.7668662224489253  0.2671208961733740  0.5162912470477039   T   T   T
  0.4961353174383021  0.1697365122987762  0.1858179210397850   T   T   T
  0.4999894209576254  0.1705032450166968  0.3372847330819653   T   T   T
  0.5004928187670501  0.1703742943286031  0.4887030667915866   T   T   T
  0.4988039416109800  0.2349911575669452  0.2126325396396780   T   T   T
  0.5001352347009629  0.2334482970242888  0.3646181717441976   T   T   T
  0.5005759999286923  0.2336544477990046  0.5162908830438582   T   T   T
  0.8291409251224380  0.9996140883431011  0.2625978563841542   T   T   T
  0.8300915380633782  0.0002878061855469  0.4142842834853013   T   T   T
  0.7661331088793304  0.9997775316093609  0.2898012517545041   T   T   T
  0.7670052551245519  0.0003877139972701  0.4415281734832632   T   T   T
  0.6695561914004102  0.1697362875787789  0.2611523154248800   T   T   T
  0.6707609489011404  0.1702225480108766  0.4132460117636754   T   T   T
  0.7330072586625889  0.2330379652912384  0.2884101753016779   T   T   T
  0.7338598970525894  0.2335738881821143  0.4404808296648994   T   T   T
  0.4997710583189132  0.3298040081294928  0.2611171101727479   T   T   T
  0.4998590597387320  0.3300463858765212  0.4132370636428107   T   T   T
  0.4997545535333856  0.2665462948275774  0.2883950600161995   T   T   T
  0.5003792461169070  0.2672448394401812  0.4404937838946381   T   T   T
  0.1666692363262356  0.5628508559153289  0.2942154411326428   T   T   T
  0.1670051119829736  0.5637597914762225  0.4459607372349197   T   T   T
  0.3960673956847032  0.8329677763310173  0.2942068832777309   T   T   T
  0.3971523447909249  0.8341038195878383  0.4459806172978773   T   T   T
  0.3327896435749125  0.4363872717316326  0.2179406191278446   T   T   T
  0.3331156836689075  0.4366764304851216  0.3703935219882482   T   T   T
  0.3332537608053485  0.4369587758300639  0.5225624208707202   T   T   T
  0.1030089398911826  0.6658784939389761  0.2180175834130438   T   T   T
  0.1036540856071611  0.6670330843769108  0.3704207039370004   T   T   T
  0.1038271646808866  0.6672873531746006  0.5225751623916253   T   T   T
  0.0624254714527339  0.8949342154982318  0.2197474466244387   T   T   T
  0.0633149621908160  0.8966042970912369  0.3712244591502341   T   T   T
  0.0638717438897558  0.8972474835628219  0.5237820072511568   T   T   T
  0.1659882765108236  0.6022192073581323  0.2178202426723388   T   T   T
  0.1668316531733680  0.6036193151452309  0.3702338780464629   T   T   T
  0.1671237392310019  0.6035003966388999  0.5220426448306199   T   T   T
  0.3965190315203557  0.5630684730329563  0.2177292349956161   T   T   T
  0.3965240408500463  0.5632720493147758  0.3702203004924982   T   T   T
  0.3969666446666267  0.5640195571366391  0.5220248479223955   T   T   T
  0.0629049411627847  0.6658966728681222  0.2946441460972693   T   T   T
  0.0635561035404919  0.6671624600929036  0.4466948787970964   T   T   T
  0.3327260239122225  0.8960674524413434  0.2943091318534741   T   T   T
  0.3335386039293553  0.8971751604107325  0.4460769436370100   T   T   T
  0.1035423417211163  0.4364110907404779  0.2943084374127878   T   T   T
  0.1040381713997718  0.4370653356658423  0.4460285878952845   T   T   T
  0.1701389406410314  0.4966325486541905  0.1858622296876860   T   T   T
  0.1704873240157951  0.4998970844479800  0.3373181865027206   T   T   T
  0.1703980152100399  0.5004889512816888  0.4887125829568291   T   T   T
  0.2351223080947662  0.4989720624964846  0.2126993488185960   T   T   T
  0.2334557581991348  0.5000830739082645  0.3646495777716510   T   T   T
  0.2336821223339669  0.5005800359802919  0.5163018483609534   T   T   T
  0.3256693749271165  0.8285886298242957  0.1858659755701240   T   T   T
  0.3295367047042248  0.8295695709720974  0.3373147678437789   T   T   T
  0.3303489457606688  0.8302807345069141  0.4887548622497562   T   T   T
  0.2632053092698641  0.7636217610331997  0.2127257778338176   T   T   T
  0.2667824636713192  0.7667342894466032  0.3646519549565497   T   T   T
  0.2671171413614033  0.7668466253841046  0.5163250531521513   T   T   T
  0.9997552858885399  0.6745088827540471  0.1865287986097641   T   T   T
  0.9999141373140219  0.6709823703422302  0.3378946264336520   T   T   T
  0.0002706821218226  0.6715658830658384  0.4898833190690723   T   T   T
  0.9994151638501094  0.7352147475736217  0.2140151442896681   T   T   T
  0.0000719904707083  0.7339506437325625  0.3653313423287159   T   T   T
  0.0003264646768741  0.7342958712309624  0.5176313530758705   T   T   T
  0.3298695401656531  0.4998202343840674  0.2611676365517397   T   T   T
  0.3300689114290662  0.4998438660346807  0.4132479413937560   T   T   T
  0.2665746913870137  0.4997195558797785  0.2884456775370126   T   T   T
  0.2672543216187719  0.5003735579435258  0.4405012874502603   T   T   T
  0.1696513485642086  0.6694403644882385  0.2612357812600550   T   T   T
  0.1702372608114473  0.6707704745684637  0.4132613932695079   T   T   T
  0.2329435315218262  0.7329261740766597  0.2884870250130689   T   T   T
  0.2335784173933391  0.7338715193558087  0.4404990416488488   T   T   T
  0.9996360490233087  0.8291583056237002  0.2626272495606656   T   T   T
  0.0002903276594068  0.8300893083666523  0.4142884101727446   T   T   T
  0.9997801918594007  0.7661268870690137  0.2898284549494576   T   T   T
  0.0003816089351076  0.7669974716467749  0.4415326800657056   T   T   T
  0.6667523566692211  0.5629786092336886  0.2942770434847191   T   T   T
  0.6674828423892762  0.5640360916114773  0.4460484924575070   T   T   T
  0.8959288098484137  0.8326434889584178  0.2953479699088675   T   T   T
  0.8970394896259819  0.8338325524579560  0.4473301049142009   T   T   T
  0.4365892979672381  0.6035125661048326  0.2941808241672703   T   T   T
  0.4373491751683432  0.6037351352778799  0.4459390042637708   T   T   T
  0.8328149687538371  0.4357176992890430  0.2177292297400513   T   T   T
  0.8332840940996533  0.4368897772271154  0.3702086915342377   T   T   T
  0.8332877813816282  0.4366253400314051  0.5220348741351231   T   T   T
  0.6044608789688084  0.6678724060539238  0.2181476412135197   T   T   T
  0.6034117335209288  0.6666380765680131  0.3703632961480778   T   T   T
  0.6025843225672247  0.6660906287696946  0.5221128232188121   T   T   T
  0.5622186548388441  0.8958298884229237  0.2179783964889737   T   T   T
  0.5635181507984228  0.8965135495772927  0.3704040240286091   T   T   T
  0.5637430475715632  0.8966004641790661  0.5225666938787086   T   T   T
  0.4355768874586232  0.8328248537000889  0.2178074393509348   T   T   T
  0.4369193520954298  0.8333389244821703  0.3702268417871650   T   T   T
  0.4366557751300491  0.8332969325575945  0.5220638762227026   T   T   T
  0.6677243603533327  0.6045400016724116  0.2181486810421234   T   T   T
  0.6666378293447153  0.6033892842648640  0.3703500782643516   T   T   T
  0.6660917673998199  0.6025791413896968  0.5221060183656476   T   T   T
  0.8958380981169753  0.5623498678339161  0.2179119210710283   T   T   T
  0.8964545095811332  0.5634852683188853  0.3704092723590193   T   T   T
  0.8965833106954122  0.5637101369427739  0.5225610458857020   T   T   T
  0.5630076462056834  0.6668003603061123  0.2943010030153062   T   T   T
  0.5640375398132917  0.6675031576939787  0.4460565181445517   T   T   T
  0.8326429921881058  0.8959106040894937  0.2953366496087355   T   T   T
  0.8338320618480637  0.8970427521750111  0.4473287655885514   T   T   T
  0.6034823566996792  0.4365590009896820  0.2941404830859042   T   T   T
  0.6037209652711368  0.4373423452724339  0.4459261620673161   T   T   T
  0.6730628675807750  0.5026125041549747  0.1858087636142045   T   T   T
  0.6704346550945743  0.4998950688407788  0.3372813409467668   T   T   T
  0.6702758086132263  0.5002145973185250  0.4886989947020837   T   T   T
  0.7354829827545828  0.4998491452928420  0.2126502384867592   T   T   T
  0.7333795251713440  0.5000111528337925  0.3646143774874560   T   T   T
  0.7334270430640757  0.5000181010537048  0.5162899424392933   T   T   T
  0.8320304099621580  0.8320216988902160  0.1876109639209318   T   T   T
  0.8299843329675269  0.8299818825583714  0.3382089222773601   T   T   T
  0.8309497563664152  0.8309491594961074  0.4903265739063656   T   T   T
  0.7655527289400368  0.7655975837277751  0.2139466330312629   T   T   T
  0.7667195115554293  0.7667006968082291  0.3653672606449021   T   T   T
  0.7666342763901852  0.7666303172994944  0.5175508257253227   T   T   T
  0.5022248739853694  0.6732072710914068  0.1858478329775650   T   T   T
  0.4999349553212085  0.6704672825775191  0.3373130588777471   T   T   T
  0.5002216735356342  0.6702965856194325  0.4887149340744656   T   T   T
  0.4996962530108604  0.7355870185013202  0.2127220494096704   T   T   T
  0.5000410415642733  0.7334186637356055  0.3646422161560423   T   T   T
  0.5000410791981977  0.7334479793435733  0.5163081183518869   T   T   T
  0.8297192644784630  0.4995619586791236  0.2611440779270282   T   T   T
  0.8304317044874736  0.5007012670292852  0.4132407306758239   T   T   T
  0.7665668609293377  0.4997629483279056  0.2884161220630048   T   T   T
  0.7672781494191341  0.5005202583450696  0.4404958288789445   T   T   T
  0.6707757203103810  0.6708400054178938  0.2615412380224740   T   T   T
  0.6723137953429514  0.6723035271333586  0.4134761963613869   T   T   T
  0.7331847293217137  0.7331865595275673  0.2890561933918576   T   T   T
  0.7345518723368585  0.7345546722507450  0.4410703266505180   T   T   T
  0.4994725969683884  0.8297539828715443  0.2612144204782254   T   T   T
  0.5007139208329008  0.8304679272521795  0.4132531581254923   T   T   T
  0.4997538087590101  0.7666133316803752  0.2884799038153574   T   T   T
  0.5005149689082984  0.7672890389287303  0.4405061317422678   T   T   T
  0.9365192059495229  0.1035068522336218  0.2953369809914506   T   T   T
  0.9372211715755014  0.1039320202854270  0.4472837865971968   T   T   T
  0.9361364518246802  0.3308674853434681  0.2181884119945963   T   T   T
  0.9368364191704188  0.3335016117857350  0.3703502353125572   T   T   T
  0.9367642068852007  0.3344417518767671  0.5221459311560395   T   T   T
  0.9366293618333401  0.6028067101125458  0.2946053108776994   T   T   T
  0.9372756695316653  0.6039560710083123  0.4466712061855773   T   T   T
  0.9360616333165837  0.8317516844263011  0.2197873485398461   T   T   T
  0.9368765409852955  0.8333796881068025  0.3712276419386811   T   T   T
  0.9369868460745110  0.8337913265608989  0.5238158914616449   T   T   T
  0.3306938970959550  0.9360413369051699  0.2181794396099406   T   T   T
  0.3335195223076184  0.9368642853673208  0.3703694956870933   T   T   T
  0.3344290570575694  0.9367564291868860  0.5221659274477304   T   T   T
  0.1035638465973889  0.9365468165017035  0.2953551947244648   T   T   T
  0.1039219200764521  0.9372120820478855  0.4472894866365849   T   T   T
  0.8317584687809472  0.9361026492157478  0.2197606845640721   T   T   T
  0.8333724707959291  0.9368568105171207  0.3712256873211643   T   T   T
  0.8337954266975558  0.9369901233158373  0.5238121963615683   T   T   T
  0.6028180830166932  0.9367157827440948  0.2946167361209575   T   T   T
  0.6039581488598316  0.9372794391750432  0.4466716837075850   T   T   T
  0.1659280264251493  0.9990482988343530  0.2076886097207407   T   T   T
  0.1678984344900130  0.0000483768151653  0.3584217857618341   T   T   T
  0.1680710057286134  0.0004145176696753  0.5105252909760623   T   T   T
  0.1685702327946146  0.9998524650814318  0.3025135105291241   T   T   T
  0.1686999530206279  0.0004285514421767  0.4545623930659488   T   T   T
  0.3287770692104317  0.3289104100056832  0.2064741047301695   T   T   T
  0.3314265545499140  0.3313998018928217  0.3580160953083151   T   T   T
  0.3319500574184957  0.3319564866818396  0.5100577967083879   T   T   T
  0.3326008086689214  0.3325558526297385  0.3020699479224689   T   T   T
  0.3325097734892353  0.3324996041212742  0.4541252984789139   T   T   T
  0.9990283918325673  0.1660267309118879  0.2076891414926507   T   T   T
  0.0000383859805240  0.1678767665780541  0.3584152060969714   T   T   T
  0.0004081253331165  0.1680813508313719  0.5105199117428256   T   T   T
  0.9998027096239213  0.1685119130654513  0.3025040977348326   T   T   T
  0.0004360193203041  0.1687111385208055  0.4545569242595988   T   T   T
  0.3312511542174263  0.9997990992896959  0.2817492806087074   T   T   T
  0.3314355991310123  0.0006143413979345  0.4336588424433572   T   T   T
  0.3300809267686304  0.9993387128049420  0.2257539862401217   T   T   T
  0.3322722370635702  0.0001315929727568  0.3777267007037963   T   T   T
  0.3314168499656631  0.0003089245906693  0.5285152032692366   T   T   T
  0.1679236019584351  0.1679259704682465  0.2827315626981886   T   T   T
  0.1683749349856214  0.1683679743361211  0.4344469892072667   T   T   T
  0.1681080717132772  0.1681527790505584  0.2269788828708243   T   T   T
  0.1683890876595058  0.1683897614245211  0.3784705605949910   T   T   T
  0.1707568416221008  0.1707682029967401  0.5298594817565458   T   T   T
  0.9997915800094503  0.3312383633427913  0.2817524124453357   T   T   T
  0.0006165617041418  0.3314447188373677  0.4336532340163899   T   T   T
  0.9994288985942816  0.3302377315318239  0.2257600429530839   T   T   T
  0.0000680471983188  0.3322246471669246  0.3777217849380250   T   T   T
  0.0002975263298239  0.3314254470096074  0.5285098516651345   T   T   T
  0.6695100061133985  0.9992895235556816  0.2065237563568090   T   T   T
  0.6687858939198890  0.0000750801412082  0.3580678191999951   T   T   T
  0.6688547306863981  0.0002086913555317  0.5100805534458743   T   T   T
  0.6669593484028908  0.9998669494938355  0.3021439682880640   T   T   T
  0.6682935016262732  0.0003811258984499  0.4541491607593215   T   T   T
  0.8307032067840723  0.3288488852764644  0.2058696414517982   T   T   T
  0.8320697616042168  0.3320555327498909  0.3574697979421515   T   T   T
  0.8326036685559046  0.3327116400513574  0.5089400561178294   T   T   T
  0.8312396281018621  0.3313539088531030  0.3014635112284907   T   T   T
  0.8323296774645925  0.3322202884937582  0.4531926758934119   T   T   T
  0.4974039920314155  0.1680262360643994  0.2058613299477940   T   T   T
  0.5000356967166226  0.1680877678545087  0.3574777725514267   T   T   T
  0.5003642196365021  0.1678899947783279  0.5089257233855520   T   T   T
  0.4998637595371065  0.1683907052364333  0.3014676225075661   T   T   T
  0.5006002228529525  0.1687907897586030  0.4531872522554323   T   T   T
  0.8315647283421796  0.9997478332160128  0.2828090168815649   T   T   T
  0.8324348543580342  0.0004332480585632  0.4344825827893004   T   T   T
  0.8301000553724052  0.9992976972201575  0.2270732376757749   T   T   T
  0.8318279444620060  0.0000815416223290  0.3785081785201143   T   T   T
  0.8301750351538431  0.0004596823877066  0.5298945274859008   T   T   T
  0.6676859499896111  0.1676260508050333  0.2813419376900868   T   T   T
  0.6685947167773847  0.1680076867971323  0.4334463664640609   T   T   T
  0.6665324937864270  0.1673299206658427  0.2252116534622317   T   T   T
  0.6684708051258426  0.1685909897249118  0.3775238308257727   T   T   T
  0.6707480281607587  0.1712830995793979  0.5282351158614418   T   T   T
  0.4997031806180914  0.3318664821828037  0.2813069067225840   T   T   T
  0.4999855470250125  0.3324388593655385  0.4334364806563826   T   T   T
  0.5000002999777422  0.3322390080362965  0.2251770081000899   T   T   T
  0.5002076937685089  0.3317032795330093  0.3775183835357083   T   T   T
  0.5009309018046864  0.3297615063689108  0.5282320966314060   T   T   T
  0.1681866181263629  0.4975893294942608  0.2059048982667164   T   T   T
  0.1680936635087278  0.4999873209807859  0.3575119030503302   T   T   T
  0.1679179359052014  0.5003716131684754  0.5089348394222313   T   T   T
  0.1683775678249049  0.4997506213691523  0.3015082475282753   T   T   T
  0.1687942328731822  0.5005876758625831  0.4531944256477658   T   T   T
  0.3287039644576311  0.8305604173250387  0.2059079428409873   T   T   T