au_111_4_layers_5x5_with_h2o_6_bilayers_
   1.00000000000000     
    14.6976995467999991    0.0000000000000000    0.0000000000000000
    -7.3488497733999996   12.7285811846999994    0.0000000000000000
     0.0000000000000000    0.0000000000000000   49.2004013061999999
   Au   H    O 
   100   240   120
Selective dynamics
Direct
  0.0000000000000000  0.0000000000000000  0.0000000000000000   F   F   F
  0.2665400046097824  0.1334602988836922  0.0474974923060455   T   T   T
  0.1336863114556835  0.2665215808287250  0.0943524170007038   T   T   T
 -0.0000738844010144 -0.0000467625455356  0.1430197010488423   T   T   T
  0.9999999999764526  0.2000000029901230  0.0000000000000000   F   F   F
  0.2670777045558202  0.3335580707688445  0.0474163021896059   T   T   T
  0.1327534393675922  0.0666427668701641  0.0944706345754915   T   T   T
  0.0003961529429918  0.2000600570390385  0.1418675610129796   T   T   T
  0.2000000030136633  0.2000000029901230  0.0000000000000000   F   F   F
  0.0667671578634004  0.3333276806721822  0.0475327650884375   T   T   T
  0.3332028330786388  0.0670513360125280  0.0943107061348463   T   T   T
  0.1994192588257194  0.1991063915937160  0.1425953857296780   T   T   T
  0.2000000029691691  0.0000000000000000  0.0000000000000000   F   F   F
  0.0665593248579743  0.1334688483579429  0.0474405838148173   T   T   T
  0.3328895854261915  0.2668650194837881  0.0945013281255390   T   T   T
  0.1997478040198230 -0.0002083545627186  0.1418594163585581   T   T   T
  0.4000000059383453  0.0000000000000000  0.0000000000000000   F   F   F
  0.6666130299000284  0.1332703799585044  0.0475316272746974   T   T   T
  0.5327338541336231  0.2664067374269038  0.0944096967061204   T   T   T
  0.3988899357140325  0.0000701288267792  0.1422534845339327   T   T   T
  0.4000000059828395  0.2000000029901230  0.0000000000000000   F   F   F
  0.6667018716456525  0.3333435829037502  0.0476382126141802   T   T   T
  0.5324070459448963  0.0666444100632834  0.0942850030598066   T   T   T
  0.3990986669211511  0.2004447393124307  0.1423154899314176   T   T   T
  0.6000000238523029  0.2000000029901230  0.0000000000000000   F   F   F
  0.4667091306840918  0.3334827080777070  0.0475324911778770   T   T   T
  0.7332790787187435  0.0660834049427153  0.0945173938171565   T   T   T
  0.6005776843305412  0.2003052719878460  0.1419653112028517   T   T   T
  0.6000000238758432  0.0000000000000000  0.0000000000000000   F   F   F
  0.4667745337533479  0.1336853663419408  0.0473191036300098   T   T   T
  0.7336112000652043  0.2663376991724280  0.0944226197015155   T   T   T
  0.5985378113826313  0.0001178886638808  0.1417960269807380   T   T   T
  0.8000000119447250  0.0000000000000000  0.0000000000000000   F   F   F
  0.9330306650177667  0.2661612218330963  0.0943191998150240   T   T   T
  0.8009256413126857  0.0003158830076878  0.1426068919650464   T   T   T
  0.7999999523200216  0.2000000029901230  0.0000000000000000   F   F   F
  0.9334393325121382  0.0661427897305812  0.0944787553561463   T   T   T
  0.7997179203814240  0.1987819964519237  0.1423208255398227   T   T   T
  0.8663459675852616  0.3331019040462393  0.0473222570975350   T   T   T
  0.8665829720029026  0.1330737389327820  0.0474984624622186   T   T   T
  0.0000000000209468  0.4000000059802389  0.0000000000000000   F   F   F
  0.2664147626668498  0.5331975290856216  0.0474394517315944   T   T   T
  0.1334677821632314  0.6666947894394043  0.0942873793598918   T   T   T
 -0.0000028128756380  0.3988275832849916  0.1422745978631347   T   T   T
  0.0000000000055138  0.6000000238188363  0.0000000000000000   F   F   F
  0.2667626173516852  0.7335706206441465  0.0474373631977274   T   T   T
  0.1334517537704646  0.4663098703251533  0.0946157599216021   T   T   T
 -0.0001204634679355  0.5984173743044382  0.1417993063763529   T   T   T
  0.2000000178749772  0.6000000238188363  0.0000000000000000   F   F   F
  0.0664387395811144  0.7329243112730963  0.0474171674157615   T   T   T
  0.3333207626816965  0.4668975583802734  0.0942852273375644   T   T   T
  0.2003052270463081  0.6006899295140276  0.1420513044990775   T   T   T
  0.2000000029901230  0.4000000059802389  0.0000000000000000   F   F   F
  0.0667836434210667  0.5330359346999866  0.0474863810345914   T   T   T
  0.3332747646617772  0.6666685726764646  0.0942958147791923   T   T   T
  0.2007344336710350  0.3989551976844208  0.1423395522652569   T   T   T
  0.4000000059592921  0.4000000059802389  0.0000000000000000   F   F   F
  0.6669325765103558  0.5332482694858740  0.0473235901301494   T   T   T
  0.5336826694728571  0.6671665164091191  0.0946130198800466   T   T   T
  0.4016223431681241  0.4015651075280654  0.1417915693806942   T   T   T
  0.4000000357444407  0.6000000238188363  0.0000000000000000   F   F   F
  0.6666462321829350  0.7334762721860755  0.0475366718979168   T   T   T
  0.5343399242827759  0.4677400322133969  0.0942934916773305   T   T   T
  0.3993013292180937  0.5996528300352599  0.1420515276917799   T   T   T
  0.6000000238133225  0.6000000238188363  0.0000000000000000   F   F   F
  0.4667792611101064  0.7332188857063262  0.0474402356607563   T   T   T
  0.7336248259986927  0.4672452954531201  0.0944236666406126   T   T   T
  0.6012118950900838  0.6012152697237229  0.1422818032478186   T   T   T
  0.6000000238287555  0.4000000059802389  0.0000000000000000   F   F   F
  0.4669964422305822  0.5337706522200798  0.0474793164621237   T   T   T
  0.7338575028475210  0.6668871825020224  0.0943222352313676   T   T   T
  0.5996872676183844  0.3994349504268648  0.1419688866323076   T   T   T
  0.8000000118976374  0.4000000059802389  0.0000000000000000   F   F   F
  0.9339187855519526  0.6671809908146090  0.0945181369939668   T   T   T
  0.7997437851289781  0.4003308107105915  0.1419787930704027   T   T   T
  0.8000000118822044  0.6000000238188363  0.0000000000000000   F   F   F
  0.9333093867072136  0.4656850952221190  0.0942929795108304   T   T   T
  0.8012746180371997  0.6009404357254929  0.1423275805729043   T   T   T
  0.8669110622435700  0.7334758741361150  0.0475003451445782   T   T   T
  0.8667740738793945  0.5333368304861092  0.0475385570607543   T   T   T
  0.0000000000419007  0.8000000119604849  0.0000000000000000   F   F   F
  0.2665636754102089  0.9332022983672622  0.0475305089091943   T   T   T
 -0.0001972633301713  0.8006702254272090  0.1426089736311044   T   T   T
  0.1328852138098014  0.8664059348510381  0.0943515948156535   T   T   T
  0.3328461571636108  0.8665221931109256  0.0946108715069745   T   T   T
  0.2000000030110698  0.8000000119604849  0.0000000000000000   F   F   F
  0.0669385616178455  0.9334626040958363  0.0474395059085815   T   T   T
  0.1982882238952580  0.7993414005232011  0.1423328685182878   T   T   T
  0.4000000059802389  0.8000000119604849  0.0000000000000000   F   F   F
  0.6664785269120277  0.9335633549800411  0.0474259834427125   T   T   T
  0.4003729334575800  0.7996834288595215  0.1420473531186811   T   T   T
  0.5331983499334697  0.8664541710557486  0.0942952669736869   T   T   T
  0.7335533776533726  0.8671733876691482  0.0943648855316463   T   T   T
  0.6000000238497023  0.8000000119604849  0.0000000000000000   F   F   F
  0.4662663506613607  0.9332396839095694  0.0474854705321178   T   T   T
  0.6010815647126811  0.8017599214589848  0.1423371642464626   T   T   T
  0.8000000119185842  0.8000000119604849  0.0000000000000000   F   F   F
  0.8000466041172879  0.8002662780306568  0.1418791231181093   T   T   T
  0.9339207194273736  0.8672906645377810  0.0944732685848084   T   T   T
  0.8665468666557707  0.9330758667299317  0.0474442609209907   T   T   T
  0.1668376957503295  0.0630995762080838  0.2953212419441934   T   T   T
  0.1670934333097475  0.0636229026139879  0.4472902720960242   T   T   T
  0.3967539636139583  0.3335779421632261  0.2945408941968212   T   T   T
  0.3968771299846330  0.3337298760430395  0.4466722056535911   T   T   T
  0.1032762726886534  0.1665204005823419  0.2196642188575741   T   T   T
  0.1035765649120908  0.1667943482574523  0.3712024705876958   T   T   T
  0.1036528051208157  0.1671015636424723  0.5237675032067391   T   T   T
  0.0626981176891817  0.3941087581528476  0.2181614650319439   T   T   T
  0.0633237267203482  0.3967308947051204  0.3703532042808724   T   T   T
  0.0637751588321934  0.3979839753015780  0.5221255142004056   T   T   T
  0.1664761636957611  0.1033284014878273  0.2196577996239475   T   T   T
  0.1667956215005950  0.1035739947885588  0.3712052575116588   T   T   T
  0.1670919074031533  0.1036620349796267  0.5237698923794852   T   T   T
  0.3939681140899531  0.0625998433653998  0.2181579053000497   T   T   T
  0.3967704337934392  0.0633513663731730  0.3703429122841299   T   T   T
  0.3979751288451117  0.0637677467958232  0.5221230068400150   T   T   T
  0.0630703111607553  0.1668094502657881  0.2953162924232659   T   T   T
  0.0636317201805480  0.1671015955158896  0.4472868355249771   T   T   T
  0.3336331536345490  0.3967396990589357  0.2945573391887276   T   T   T
  0.3337410132500705  0.3968726126405199  0.4466755773525832   T   T   T
  0.1664702367890621  0.9988762394181528  0.1875479849731347   T   T   T
  0.1700119821433158 -0.0000031796617480  0.3382164351245548   T   T   T
  0.1698950690881106  0.0004139887492119  0.4903026838084357   T   T   T
  0.2329300127515613  0.9991951362083841  0.2139262413793318   T   T   T
  0.2334832154306360  0.0000903194130214  0.3653618244840146   T   T   T
  0.2341202725557762  0.0003800683086331  0.5175510510040678   T   T   T
  0.3240803256921667  0.3243917528194550  0.1864587712056418   T   T   T
  0.3290243124266078  0.3289807720582446  0.3378244596684968   T   T   T
  0.3292492626768004  0.3292526076885792  0.4898522747427110   T   T   T
  0.2632102504257047  0.2633081983194550  0.2139152906217485   T   T   T
  0.2662563257118383  0.2662403178478323  0.3652747790873977   T   T   T
  0.2665528550283309  0.2665609239815206  0.5175990743405092   T   T   T
  0.9989688344451432  0.1666475931209748  0.1875481658030384   T   T   T
 -0.0000368961505511  0.1699739100622267  0.3382099929572354   T   T   T
  0.0004107637193806  0.1699068135858111  0.4902972068806848   T   T   T
  0.9992193321629191  0.2330449826428566  0.2139306119357052   T   T   T
  0.0000555837371493  0.2334494707710440  0.3653547790069189   T   T   T
  0.0003722056475548  0.2341299137934752  0.5175457215589911   T   T   T
  0.3283481558485656  0.9996392028220672  0.2615651564301539   T   T   T
  0.3285463664755808  0.0004431765920089  0.4134712751778268   T   T   T
  0.2662233845236150 -0.0001969953478572  0.2891006151862602   T   T   T
  0.2664693294281885  0.0005469335405087  0.4410741654120243   T   T   T
  0.1700449398814052  0.1700563467881041  0.2625194183885647   T   T   T
  0.1705578351729272  0.1705527816762294  0.4142484889086512   T   T   T
  0.2334114961462474  0.2334007414032963  0.2896934448767555   T   T   T
  0.2337912125432095  0.2337831718831684  0.4414812538924381   T   T   T
 -0.0003114327528767  0.3283967706759286  0.2615678379814067   T   T   T
  0.0004113338058222  0.3285330893314008  0.4134656256890890   T   T   T
 -0.0002441588415134  0.2661830560748278  0.2890968697878470   T   T   T
  0.0005477819446958  0.2664785003279009  0.4410691584926704   T   T   T
  0.6659893883815560  0.0629982127466035  0.2945959364083944   T   T   T
  0.6671712621300526  0.0635611583534484  0.4466858188016416   T   T   T
  0.8960760567320747  0.3327997105452321  0.2942822026862704   T   T   T
  0.8971675169943909  0.3335450036189749  0.4460549845556187   T   T   T
  0.4365007709695516  0.1035483163771432  0.2942798715508123   T   T   T
  0.4370659010292928  0.1040311343591003  0.4460268173315851   T   T   T
  0.6022243948982352  0.1659855912285916  0.2177291583314613   T   T   T
  0.6036547391030603  0.1668403603175722  0.3702164254958256   T   T   T
  0.6035161897834727  0.1671276729261791  0.5220330484545221   T   T   T
  0.5629463992425270  0.3964876478920769  0.2176657621416840   T   T   T
  0.5632846048955943  0.3965003455236704  0.3702017803225469   T   T   T
  0.5640146979416508  0.3969637501620628  0.5220125999623252   T   T   T
  0.4362837961050555  0.3327822743585041  0.2178838959954720   T   T   T
  0.4366970543524789  0.3330677792890127  0.3703875871081904   T   T   T
  0.4369557469211492  0.3332481578789941  0.5225571193545695   T   T   T
  0.6658592178277800  0.1029958009053935  0.2179232021283613   T   T   T
  0.6670835965087447  0.1036840503843250  0.3704090253826878   T   T   T
  0.6673073873156589  0.1038374326164340  0.5225662602134844   T   T   T
  0.8948673180893093  0.0624747988461906  0.2197170038135302   T   T   T
  0.8966017478123436  0.0632937280994392  0.3712196414353376   T   T   T
  0.8972471119106021  0.0638776604596887  0.5237755310875710   T   T   T
  0.5629431971282696  0.1666889938146904  0.2941574415384520   T   T   T
  0.5637631993967974  0.1669928101014552  0.4459495701252048   T   T   T
  0.8329697938273031  0.3961415407101280  0.2941463628523117   T   T   T
  0.8340913807333588  0.3971644591823825  0.4459560962460893   T   T   T
  0.6740724958326079  0.9991017346119238  0.1865082307916060   T   T   T
  0.6710581093461742  0.0000231561444841  0.3378747574258776   T   T   T
  0.6715729188548573  0.0002730914656633  0.4898752826800466   T   T   T
  0.7350688212544364  0.9992722156885160  0.2139875264496944   T   T   T
  0.7339768103372644  0.0000892570748049  0.3653134559086225   T   T   T
  0.7343051442460261  0.0003281164310325  0.5176235860507679   T   T   T
  0.8290381456240413  0.3258161975570263  0.1858253303143127   T   T   T
  0.8295277466841919  0.3295704787855354  0.3372766222427170   T   T   T
  0.8302838001227927  0.3303437374745903  0.4887173672418931   T   T   T
  0.7637288159512103  0.2633036853008040  0.2126449686358231   T   T   T
  0.7667377222113201  0.2667975702173008  0.3646184427820640   T   T   T
  0.7668662224489268  0.2671208961733730  0.5162912470477022   T   T   T
  0.4961353174382998  0.1697365122987747  0.1858179210397851   T   T   T
  0.4999894209576262  0.1705032450166993  0.3372847330819661   T   T   T
  0.5004928187670530  0.1703742943285998  0.4887030667915846   T   T   T
  0.4988039416109823  0.2349911575669441  0.2126325396396754   T   T   T
  0.5001352347009628  0.2334482970242879  0.3646181717441956   T   T   T
  0.5005759999286905  0.2336544477990063  0.5162908830438547   T   T   T
  0.8291409251224385  0.9996140883430980  0.2625978563841559   T   T   T
  0.8300915380633811  0.0002878061855498  0.4142842834852987   T   T   T
  0.7661331088793327  0.9997775316093626  0.2898012517545012   T   T   T
  0.7670052551245519  0.0003877139972706  0.4415281734832633   T   T   T
  0.6695561914004099  0.1697362875787792  0.2611523154248835   T   T   T
  0.6707609489011397  0.1702225480108773  0.4132460117636719   T   T   T
  0.7330072586625884  0.2330379652912363  0.2884101753016813   T   T   T
  0.7338598970525873  0.2335738881821151  0.4404808296648983   T   T   T
  0.4997710583189151  0.3298040081294920  0.2611171101727508   T   T   T
  0.4998590597387300  0.3300463858765222  0.4132370636428133   T   T   T
  0.4997545535333870  0.2665462948275785  0.2883950600161965   T   T   T
  0.5003792461169034  0.2672448394401798  0.4404937838946373   T   T   T
  0.1666692363262374  0.5628508559153262  0.2942154411326427   T   T   T
  0.1670051119829719  0.5637597914762200  0.4459607372349217   T   T   T
  0.3960673956847031  0.8329677763310167  0.2942068832777331   T   T   T
  0.3971523447909230  0.8341038195878384  0.4459806172978788   T   T   T
  0.3327896435749090  0.4363872717316299  0.2179406191278431   T   T   T
  0.3331156836689089  0.4366764304851189  0.3703935219882507   T   T   T
  0.3332537608053518  0.4369587758300673  0.5225624208707201   T   T   T
  0.1030089398911851  0.6658784939389781  0.2180175834130461   T   T   T
  0.1036540856071640  0.6670330843769080  0.3704207039369993   T   T   T
  0.1038271646808848  0.6672873531745995  0.5225751623916243   T   T   T
  0.0624254714527340  0.8949342154982300  0.2197474466244371   T   T   T
  0.0633149621908192  0.8966042970912385  0.3712244591502322   T   T   T
  0.0638717438897569  0.8972474835628210  0.5237820072511560   T   T   T
  0.1659882765108216  0.6022192073581322  0.2178202426723420   T   T   T
  0.1668316531733658  0.6036193151452299  0.3702338780464618   T   T   T
  0.1671237392310022  0.6035003966388995  0.5220426448306218   T   T   T
  0.3965190315203524  0.5630684730329540  0.2177292349956134   T   T   T
  0.3965240408500454  0.5632720493147768  0.3702203004925011   T   T   T
  0.3969666446666281  0.5640195571366361  0.5220248479223976   T   T   T
  0.0629049411627874  0.6658966728681223  0.2946441460972726   T   T   T
  0.0635561035404893  0.6671624600929053  0.4466948787970945   T   T   T
  0.3327260239122230  0.8960674524413443  0.2943091318534727   T   T   T
  0.3335386039293530  0.8971751604107354  0.4460769436370097   T   T   T
  0.1035423417211134  0.4364110907404761  0.2943084374127907   T   T   T
  0.1040381713997686  0.4370653356658438  0.4460285878952854   T   T   T
  0.1701389406410344  0.4966325486541895  0.1858622296876876   T   T   T
  0.1704873240157956  0.4998970844479766  0.3373181865027208   T   T   T
  0.1703980152100396  0.5004889512816867  0.4887125829568324   T   T   T
  0.2351223080947639  0.4989720624964866  0.2126993488185981   T   T   T
  0.2334557581991340  0.5000830739082660  0.3646495777716504   T   T   T
  0.2336821223339703  0.5005800359802909  0.5163018483609566   T   T   T
  0.3256693749271196  0.8285886298242948  0.1858659755701253   T   T   T
  0.3295367047042237  0.8295695709721006  0.3373147678437803   T   T   T
  0.3303489457606657  0.8302807345069172  0.4887548622497546   T   T   T
  0.2632053092698655  0.7636217610332029  0.2127257778338152   T   T   T
  0.2667824636713158  0.7667342894466022  0.3646519549565505   T   T   T
  0.2671171413614050  0.7668466253841015  0.5163250531521492   T   T   T
 -0.0002447141114627  0.6745088827540445  0.1865287986097632   T   T   T
 -0.0000858626859760  0.6709823703422281  0.3378946264336510   T   T   T
  0.0002706821218203  0.6715658830658416  0.4898833190690700   T   T   T
  0.9994151638501114  0.7352147475736249  0.2140151442896691   T   T   T
  0.0000719904707050  0.7339506437325594  0.3653313423287136   T   T   T
  0.0003264646768770  0.7342958712309635  0.5176313530758673   T   T   T
  0.3298695401656533  0.4998202343840645  0.2611676365517431   T   T   T
  0.3300689114290679  0.4998438660346772  0.4132479413937585   T   T   T
  0.2665746913870117  0.4997195558797806  0.2884456775370158   T   T   T
  0.2672543216187743  0.5003735579435246  0.4405012874502608   T   T   T
  0.1696513485642059  0.6694403644882396  0.2612357812600560   T   T   T
  0.1702372608114460  0.6707704745684663  0.4132613932695047   T   T   T
  0.2329435315218292  0.7329261740766592  0.2884870250130690   T   T   T
  0.2335784173933382  0.7338715193558090  0.4404990416488491   T   T   T
  0.9996360490233093  0.8291583056237011  0.2626272495606651   T   T   T
  0.0002903276594079  0.8300893083666503  0.4142884101727443   T   T   T
  0.9997801918594010  0.7661268870690150  0.2898284549494595   T   T   T
  0.0003816089351110  0.7669974716467742  0.4415326800657058   T   T   T
  0.6667523566692176  0.5629786092336857  0.2942770434847179   T   T   T
  0.6674828423892765  0.5640360916114764  0.4460484924575035   T   T   T
  0.8959288098484141  0.8326434889584178  0.2953479699088649   T   T   T
  0.8970394896259831  0.8338325524579525  0.4473301049142015   T   T   T
  0.4365892979672384  0.6035125661048319  0.2941808241672716   T   T   T
  0.4373491751683429  0.6037351352778815  0.4459390042637729   T   T   T
  0.8328149687538396  0.4357176992890436  0.2177292297400546   T   T   T
  0.8332840940996558  0.4368897772271124  0.3702086915342352   T   T   T
  0.8332877813816283  0.4366253400314047  0.5220348741351218   T   T   T
  0.6044608789688097  0.6678724060539269  0.2181476412135219   T   T   T
  0.6034117335209309  0.6666380765680132  0.3703632961480783   T   T   T
  0.6025843225672263  0.6660906287696964  0.5221128232188113   T   T   T
  0.5622186548388418  0.8958298884229254  0.2179783964889710   T   T   T
  0.5635181507984209  0.8965135495772933  0.3704040240286072   T   T   T
  0.5637430475715660  0.8966004641790661  0.5225666938787111   T   T   T
  0.4355768874586229  0.8328248537000880  0.2178074393509356   T   T   T
  0.4369193520954278  0.8333389244821726  0.3702268417871679   T   T   T
  0.4366557751300464  0.8332969325575933  0.5220638762226998   T   T   T
  0.6677243603533320  0.6045400016724131  0.2181486810421242   T   T   T
  0.6666378293447149  0.6033892842648622  0.3703500782643506   T   T   T
  0.6660917673998207  0.6025791413896981  0.5221060183656481   T   T   T
  0.8958380981169757  0.5623498678339188  0.2179119210710260   T   T   T
  0.8964545095811322  0.5634852683188885  0.3704092723590218   T   T   T
  0.8965833106954153  0.5637101369427723  0.5225610458857020   T   T   T
  0.5630076462056853  0.6668003603061106  0.2943010030153097   T   T   T
  0.5640375398132906  0.6675031576939771  0.4460565181445493   T   T   T
  0.8326429921881026  0.8959106040894923  0.2953366496087376   T   T   T
  0.8338320618480671  0.8970427521750097  0.4473287655885541   T   T   T
  0.6034823566996810  0.4365590009896794  0.2941404830859076   T   T   T
  0.6037209652711384  0.4373423452724324  0.4459261620673143   T   T   T
  0.6730628675807755  0.5026125041549735  0.1858087636142073   T   T   T
  0.6704346550945766  0.4998950688407773  0.3372813409467643   T   T   T
  0.6702758086132238  0.5002145973185224  0.4886989947020831   T   T   T
  0.7354829827545861  0.4998491452928441  0.2126502384867623   T   T   T
  0.7333795251713467  0.5000111528337939  0.3646143774874544   T   T   T
  0.7334270430640751  0.5000181010537075  0.5162899424392934   T   T   T
  0.8320304099621549  0.8320216988902170  0.1876109639209348   T   T   T
  0.8299843329675277  0.8299818825583745  0.3382089222773591   T   T   T
  0.8309497563664162  0.8309491594961080  0.4903265739063680   T   T   T
  0.7655527289400343  0.7655975837277782  0.2139466330312595   T   T   T
  0.7667195115554288  0.7667006968082281  0.3653672606449014   T   T   T
  0.7666342763901829  0.7666303172994918  0.5175508257253212   T   T   T
  0.5022248739853700  0.6732072710914073  0.1858478329775672   T   T   T
  0.4999349553212050  0.6704672825775208  0.3373130588777440   T   T   T
  0.5002216735356352  0.6702965856194325  0.4887149340744646   T   T   T
  0.4996962530108625  0.7355870185013199  0.2127220494096688   T   T   T
  0.5000410415642741  0.7334186637356030  0.3646422161560397   T   T   T
  0.5000410791981995  0.7334479793435753  0.5163081183518885   T   T   T
  0.8297192644784628  0.4995619586791216  0.2611440779270315   T   T   T
  0.8304317044874768  0.5007012670292823  0.4132407306758238   T   T   T
  0.7665668609293393  0.4997629483279035  0.2884161220630024   T   T   T
  0.7672781494191363  0.5005202583450702  0.4404958288789445   T   T   T
  0.6707757203103779  0.6708400054178968  0.2615412380224729   T   T   T
  0.6723137953429543  0.6723035271333572  0.4134761963613860   T   T   T
  0.7331847293217159  0.7331865595275666  0.2890561933918568   T   T   T
  0.7345518723368608  0.7345546722507442  0.4410703266505168   T   T   T
  0.4994725969683859  0.8297539828715454  0.2612144204782234   T   T   T
  0.5007139208329027  0.8304679272521792  0.4132531581254892   T   T   T
  0.4997538087590110  0.7666133316803718  0.2884799038153590   T   T   T
  0.5005149689083009  0.7672890389287308  0.4405061317422643   T   T   T
  0.9365192059495262  0.1035068522336250  0.2953369809914541   T   T   T
  0.9372211715754989  0.1039320202854287  0.4472837865971951   T   T   T
  0.9361364518246801  0.3308674853434683  0.2181884119945957   T   T   T
  0.9368364191704209  0.3335016117857370  0.3703502353125578   T   T   T
  0.9367642068851997  0.3344417518767703  0.5221459311560407   T   T   T
  0.9366293618333394  0.6028067101125457  0.2946053108777018   T   T   T
  0.9372756695316649  0.6039560710083152  0.4466712061855769   T   T   T
  0.9360616333165801  0.8317516844263004  0.2197873485398492   T   T   T
  0.9368765409852958  0.8333796881067995  0.3712276419386830   T   T   T
  0.9369868460745098  0.8337913265608994  0.5238158914616465   T   T   T
  0.3306938970959541  0.9360413369051718  0.2181794396099415   T   T   T
  0.3335195223076159  0.9368642853673181  0.3703694956870924   T   T   T
  0.3344290570575699  0.9367564291868866  0.5221659274477304   T   T   T
  0.1035638465973897  0.9365468165017047  0.2953551947244675   T   T   T
  0.1039219200764515  0.9372120820478844  0.4472894866365864   T   T   T
  0.8317584687809501  0.9361026492157500  0.2197606845640720   T   T   T
  0.8333724707959284  0.9368568105171188  0.3712256873211651   T   T   T
  0.8337954266975579  0.9369901233158355  0.5238121963615663   T   T   T
  0.6028180830166937  0.9367157827440965  0.2946167361209599   T   T   T
  0.6039581488598319  0.9372794391750444  0.4466716837075833   T   T   T
  0.1659280264251481  0.9990482988343506  0.2076886097207385   T   T   T
  0.1678984344900116  0.0000483768151641  0.3584217857618336   T   T   T
  0.1680710057286108  0.0004145176696788  0.5105252909760637   T   T   T
  0.1685702327946151  0.9998524650814338  0.3025135105291263   T   T   T
  0.1686999530206280  0.0004285514421796  0.4545623930659514   T   T   T
  0.3287770692104340  0.3289104100056820  0.2064741047301720   T   T   T
  0.3314265545499174  0.3313998018928207  0.3580160953083171   T   T   T
  0.3319500574184939  0.3319564866818383  0.5100577967083885   T   T   T
  0.3326008086689180  0.3325558526297376  0.3020699479224677   T   T   T
  0.3325097734892341  0.3324996041212717  0.4541252984789159   T   T   T
  0.9990283918325670  0.1660267309118886  0.2076891414926488   T   T   T
  0.0000383859805275  0.1678767665780550  0.3584152060969715   T   T   T
  0.0004081253331148  0.1680813508313732  0.5105199117428282   T   T   T
 -0.0001972903760794  0.1685119130654480  0.3025040977348339   T   T   T
  0.0004360193203007  0.1687111385208082  0.4545569242595963   T   T   T
  0.3312511542174270 -0.0002009007103047  0.2817492806087056   T   T   T
  0.3314355991310147  0.0006143413979339  0.4336588424433574   T   T   T
  0.3300809267686303  0.9993387128049449  0.2257539862401219   T   T   T
  0.3322722370635681  0.0001315929727566  0.3777267007037965   T   T   T
  0.3314168499656643  0.0003089245906700  0.5285152032692366   T   T   T
  0.1679236019584376  0.1679259704682449  0.2827315626981898   T   T   T
  0.1683749349856240  0.1683679743361225  0.4344469892072655   T   T   T
  0.1681080717132755  0.1681527790505618  0.2269788828708275   T   T   T
  0.1683890876595042  0.1683897614245222  0.3784705605949903   T   T   T
  0.1707568416221010  0.1707682029967411  0.5298594817565467   T   T   T
 -0.0002084199905503  0.3312383633427929  0.2817524124453349   T   T   T
  0.0006165617041434  0.3314447188373703  0.4336532340163924   T   T   T
  0.9994288985942847  0.3302377315318206  0.2257600429530869   T   T   T
  0.0000680471983186  0.3322246471669238  0.3777217849380271   T   T   T
  0.0002975263298218  0.3314254470096090  0.5285098516651350   T   T   T
  0.6695100061133975  0.9992895235556828  0.2065237563568102   T   T   T
  0.6687858939198874  0.0000750801412085  0.3580678191999945   T   T   T
  0.6688547306864012  0.0002086913555323  0.5100805534458773   T   T   T
  0.6669593484028908 -0.0001330505061613  0.3021439682880668   T   T   T
  0.6682935016262725  0.0003811258984522  0.4541491607593227   T   T   T
  0.8307032067840712  0.3288488852764638  0.2058696414518006   T   T   T
  0.8320697616042182  0.3320555327498906  0.3574697979421507   T   T   T
  0.8326036685559078  0.3327116400513605  0.5089400561178304   T   T   T
  0.8312396281018647  0.3313539088531008  0.3014635112284875   T   T   T
  0.8323296774645953  0.3322202884937600  0.4531926758934112   T   T   T
  0.4974039920314168  0.1680262360644019  0.2058613299477914   T   T   T
  0.5000356967166206  0.1680877678545110  0.3574777725514240   T   T   T
  0.5003642196365001  0.1678899947783296  0.5089257233855531   T   T   T
  0.4998637595371042  0.1683907052364298  0.3014676225075635   T   T   T
  0.5006002228529535  0.1687907897586016  0.4531872522554342   T   T   T
  0.8315647283421772  0.9997478332160159  0.2828090168815672   T   T   T
  0.8324348543580342  0.0004332480585636  0.4344825827892994   T   T   T
  0.8301000553724062  0.9992976972201556  0.2270732376757725   T   T   T
  0.8318279444620085  0.0000815416223318  0.3785081785201133   T   T   T
  0.8301750351538446  0.0004596823877067  0.5298945274859042   T   T   T
  0.6676859499896142  0.1676260508050330  0.2813419376900876   T   T   T
  0.6685947167773854  0.1680076867971343  0.4334463664640592   T   T   T
  0.6665324937864255  0.1673299206658417  0.2252116534622335   T   T   T
  0.6684708051258431  0.1685909897249092  0.3775238308257755   T   T   T
  0.6707480281607573  0.1712830995794014  0.5282351158614413   T   T   T
  0.4997031806180885  0.3318664821828036  0.2813069067225856   T   T   T
  0.4999855470250092  0.3324388593655364  0.4334364806563797   T   T   T
  0.5000002999777404  0.3322390080362945  0.2251770081000913   T   T   T
  0.5002076937685118  0.3317032795330102  0.3775183835357058   T   T   T
  0.5009309018046844  0.3297615063689116  0.5282320966314051   T   T   T
  0.1681866181263635  0.4975893294942582  0.2059048982667189   T   T   T
  0.1680936635087299  0.4999873209807845  0.3575119030503316   T   T   T
  0.1679179359051989  0.5003716131684742  0.5089348394222296   T   T   T
  0.1683775678249081  0.4997506213691542  0.3015082475282779   T   T   T
  0.1687942328731808  0.5005876758625827  0.4531944256477672   T   T   T
  0.3287039644576333  0.8305604173250412  0.2059079428409898   T   T   T