bilayer_1                               
   1.00000000000000     
    14.6976995467999991    0.0000000000000000    0.0000000000000000
    -7.3488497733999996   12.7285811846999994    0.0000000000000000
     0.0000000000000000    0.0000000000000000   49.2004013061999999
   H    O 
    48    24
Selective dynamics
Direct
  0.1064028824037834  0.1693480460779766  0.2133617137302128   T   T   T
  0.0629451656741934  0.3935971285962211  0.2133617137302128   T   T   T
  0.1693480340779756  0.1064028814037798  0.2133617137302128   T   T   T
  0.3935971125962198  0.0629451646741969  0.2133617137302128   T   T   T
  0.1775040191626258 -0.0000000000000000  0.1803630473234412   T   T   T
  0.2396234102083695 -0.0000000000000000  0.2081340193569455   T   T   T
  0.3224959628373727  0.3224959618373691  0.1803630473234412   T   T   T
  0.2603765907916272  0.2603765927916274  0.2081340193569455   T   T   T
  0.0000000049999969  0.1775040291626266  0.1803630473234412   T   T   T
  0.0000000029999967  0.2396234172083665  0.2081340193569455   T   T   T
  0.6064028334037824  0.1693480460779766  0.2133617137302128   T   T   T
  0.5629451416741914  0.3935971285962211  0.2133617137302128   T   T   T
  0.4370548513258045  0.3306519829220222  0.2133617137302128   T   T   T
  0.6693480340779759  0.1064028814037798  0.2133617137302128   T   T   T
  0.8935971125962202  0.0629451646741969  0.2133617137302128   T   T   T
  0.6775040031626312 -0.0000000000000000  0.1803630473234412   T   T   T
  0.7396234432083689 -0.0000000000000000  0.2081340193569455   T   T   T
  0.8224959468373718  0.3224959618373691  0.1803630473234412   T   T   T
  0.7603765747916326  0.2603765927916274  0.2081340193569455   T   T   T
  0.4999999970000033  0.1775040291626266  0.1803630473234412   T   T   T
  0.5000000029999967  0.2396234172083665  0.2081340193569455   T   T   T
  0.3306519599220238  0.4370548263258059  0.2133617137302128   T   T   T
  0.1064028964037775  0.6693480740779721  0.2133617137302128   T   T   T
  0.0629451806741982  0.8935971755962219  0.2133617137302128   T   T   T
  0.1693480550779738  0.6064028904037765  0.2133617137302128   T   T   T
  0.3935971435962188  0.5629451926741921  0.2133617137302128   T   T   T
  0.1775040241626297  0.5000000100000008  0.1803630473234412   T   T   T
  0.2396234152083664  0.5000000100000008  0.2081340193569455   T   T   T
  0.3224959868373747  0.8224960088373698  0.1803630473234412   T   T   T
  0.2603765957916312  0.7603766017916312  0.2081340193569455   T   T   T
  0.0000000269999987  0.6775040581626250  0.1803630473234412   T   T   T
  0.0000000109999974  0.7396234642083671  0.2081340193569455   T   T   T
  0.8306519279220209  0.4370548263258059  0.2133617137302128   T   T   T
  0.6064028644037814  0.6693480740779721  0.2133617137302128   T   T   T
  0.5629451806741982  0.8935971755962219  0.2133617137302128   T   T   T
  0.4370548723258026  0.8306519919220262  0.2133617137302128   T   T   T
  0.6693480550779741  0.6064028904037765  0.2133617137302128   T   T   T
  0.8935971755962219  0.5629451926741921  0.2133617137302128   T   T   T
  0.6775039921626267  0.5000000100000008  0.1803630473234412   T   T   T
  0.7396234312083679  0.5000000100000008  0.2081340193569455   T   T   T
  0.8224959868373751  0.8224960088373698  0.1803630473234412   T   T   T
  0.7603765957916307  0.7603766017916312  0.2081340193569455   T   T   T
  0.5000000269999987  0.6775040581626250  0.1803630473234412   T   T   T
  0.5000000109999974  0.7396234642083671  0.2081340193569455   T   T   T
  0.9370548183258053  0.3306519829220222  0.2133617137302128   T   T   T
  0.9370548393258035  0.8306519919220262  0.2133617137302128   T   T   T
  0.3306519809220220  0.9370548363258068  0.2133617137302128   T   T   T
  0.8306519489220262  0.9370548363258068  0.2133617137302128   T   T   T
  0.1716017675800202 -0.0000000000000000  0.2000119633950033   T   T   T
  0.3283982264199795  0.3283982204199790  0.2000119633950033   T   T   T
  0.0000000009999965  0.1716017705800240  0.2000119633950033   T   T   T
  0.3273168060167426 -0.0000000000000000  0.2194675144641927   T   T   T
  0.1726831769832597  0.1726831769832597  0.2194675144641927   T   T   T
  0.0000000040000003  0.3273168140167433  0.2194675144641927   T   T   T
  0.6716017675800197 -0.0000000000000000  0.2000119633950033   T   T   T
  0.8283981944199772  0.3283982204199790  0.2000119633950033   T   T   T
  0.5000000169999979  0.1716017705800240  0.2000119633950033   T   T   T
  0.8273168060167425 -0.0000000000000000  0.2194675144641927   T   T   T
  0.6726832179832595  0.1726831769832597  0.2194675144641927   T   T   T
  0.5000000200000017  0.3273168140167433  0.2194675144641927   T   T   T
  0.1716017725800242  0.5000000100000008  0.2000119633950033   T   T   T
  0.3283982664199757  0.8283982674199797  0.2000119633950033   T   T   T
  0.0000000149999977  0.6716017985800187  0.2000119633950033   T   T   T
  0.3273168110167395  0.5000000100000008  0.2194675144641927   T   T   T
  0.1726831669832588  0.6726832049832548  0.2194675144641927   T   T   T
  0.9999999899999992  0.8273167860167409  0.2194675144641927   T   T   T
  0.6716017565800223  0.5000000100000008  0.2000119633950033   T   T   T
  0.8283982334199769  0.8283982674199797  0.2000119633950033   T   T   T
  0.5000000149999977  0.6716017985800187  0.2000119633950033   T   T   T
  0.8273167950167452  0.5000000100000008  0.2194675144641927   T   T   T
  0.6726832159832593  0.6726832049832548  0.2194675144641927   T   T   T
  0.4999999899999992  0.8273167860167409  0.2194675144641927   T   T   T
 
  0.00000000E+00  0.00000000E+00  0.00000000E+00
  0.00000000E+00  0.00000000E+00  0.00000000E+00
  0.00000000E+00  0.00000000E+00  0.00000000E+00
  0.00000000E+00  0.00000000E+00  0.00000000E+00
  0.00000000E+00  0.00000000E+00  0.00000000E+00
  0.00000000E+00  0.00000000E+00  0.00000000E+00
  0.00000000E+00  0.00000000E+00  0.00000000E+00
  0.00000000E+00  0.00000000E+00  0.00000000E+00
  0.00000000E+00  0.00000000E+00  0.00000000E+00
  0.00000000E+00  0.00000000E+00  0.00000000E+00
  0.00000000E+00  0.00000000E+00  0.00000000E+00
  0.00000000E+00  0.00000000E+00  0.00000000E+00
  0.00000000E+00  0.00000000E+00  0.00000000E+00
  0.00000000E+00  0.00000000E+00  0.00000000E+00
  0.00000000E+00  0.00000000E+00  0.00000000E+00
  0.00000000E+00  0.00000000E+00  0.00000000E+00
  0.00000000E+00  0.00000000E+00  0.00000000E+00
  0.00000000E+00  0.00000000E+00  0.00000000E+00
  0.00000000E+00  0.00000000E+00  0.00000000E+00
  0.00000000E+00  0.00000000E+00  0.00000000E+00
  0.00000000E+00  0.00000000E+00  0.00000000E+00
  0.00000000E+00  0.00000000E+00  0.00000000E+00
  0.00000000E+00  0.00000000E+00  0.00000000E+00
  0.00000000E+00  0.00000000E+00  0.00000000E+00
  0.00000000E+00  0.00000000E+00  0.00000000E+00
  0.00000000E+00  0.00000000E+00  0.00000000E+00
  0.00000000E+00  0.00000000E+00  0.00000000E+00
  0.00000000E+00  0.00000000E+00  0.00000000E+00
  0.00000000E+00  0.00000000E+00  0.00000000E+00
  0.00000000E+00  0.00000000E+00  0.00000000E+00
  0.00000000E+00  0.00000000E+00  0.00000000E+00
  0.00000000E+00  0.00000000E+00  0.00000000E+00
  0.00000000E+00  0.00000000E+00  0.00000000E+00
  0.00000000E+00  0.00000000E+00  0.00000000E+00
  0.00000000E+00  0.00000000E+00  0.00000000E+00
  0.00000000E+00  0.00000000E+00  0.00000000E+00
  0.00000000E+00  0.00000000E+00  0.00000000E+00
  0.00000000E+00  0.00000000E+00  0.00000000E+00
  0.00000000E+00  0.00000000E+00  0.00000000E+00
  0.00000000E+00  0.00000000E+00  0.00000000E+00
  0.00000000E+00  0.00000000E+00  0.00000000E+00
  0.00000000E+00  0.00000000E+00  0.00000000E+00
  0.00000000E+00  0.00000000E+00  0.00000000E+00
  0.00000000E+00  0.00000000E+00  0.00000000E+00
  0.00000000E+00  0.00000000E+00  0.00000000E+00
  0.00000000E+00  0.00000000E+00  0.00000000E+00
  0.00000000E+00  0.00000000E+00  0.00000000E+00
  0.00000000E+00  0.00000000E+00  0.00000000E+00
  0.00000000E+00  0.00000000E+00  0.00000000E+00
  0.00000000E+00  0.00000000E+00  0.00000000E+00
  0.00000000E+00  0.00000000E+00  0.00000000E+00
  0.00000000E+00  0.00000000E+00  0.00000000E+00
  0.00000000E+00  0.00000000E+00  0.00000000E+00
  0.00000000E+00  0.00000000E+00  0.00000000E+00
  0.00000000E+00  0.00000000E+00  0.00000000E+00
  0.00000000E+00  0.00000000E+00  0.00000000E+00
  0.00000000E+00  0.00000000E+00  0.00000000E+00
  0.00000000E+00  0.00000000E+00  0.00000000E+00
  0.00000000E+00  0.00000000E+00  0.00000000E+00
  0.00000000E+00  0.00000000E+00  0.00000000E+00
  0.00000000E+00  0.00000000E+00  0.00000000E+00
  0.00000000E+00  0.00000000E+00  0.00000000E+00
  0.00000000E+00  0.00000000E+00  0.00000000E+00
  0.00000000E+00  0.00000000E+00  0.00000000E+00
  0.00000000E+00  0.00000000E+00  0.00000000E+00
  0.00000000E+00  0.00000000E+00  0.00000000E+00
  0.00000000E+00  0.00000000E+00  0.00000000E+00
  0.00000000E+00  0.00000000E+00  0.00000000E+00
  0.00000000E+00  0.00000000E+00  0.00000000E+00
  0.00000000E+00  0.00000000E+00  0.00000000E+00
  0.00000000E+00  0.00000000E+00  0.00000000E+00
  0.00000000E+00  0.00000000E+00  0.00000000E+00
