au_111_4_layers_5x5_with_h2o_6_bilayers_
   1.00000000000000     
    14.6976995467999991    0.0000000000000000    0.0000000000000000
    -7.3488497733999996   12.7285811846999994    0.0000000000000000
     0.0000000000000000    0.0000000000000000   49.2004013061999999
   Au   H    O 
   100    48    24
Selective dynamics
Direct
  0.0000000000000000  0.0000000000000000  0.0000000000000000   F   F   F
  0.2666699886264183  0.1333300024074902  0.0487800016927409   T   T   T
  0.1333300173535150  0.2666699886457167  0.0975700020844172   T   T   T
  0.0000000000000000  0.0000000000000000  0.1463499963381949   T   T   T
  0.9999999999764526  0.2000000029901230  0.0000000000000000   F   F   F
  0.2666699886028780  0.3333300053976131  0.0487800016927409   T   T   T
  0.1333300024561268  0.0666700005826328  0.0975700020844172   T   T   T
  0.9999999999764526  0.2000000029901230  0.1463499963381949   T   T   T
  0.2000000030136633  0.2000000029901230  0.0000000000000000   F   F   F
  0.0666699931178698  0.3333300053976131  0.0487800016927409   T   T   T
  0.3333300054252959  0.0666700005826328  0.0975700020844172   T   T   T
  0.2000000030136633  0.2000000029901230  0.1463499963381949   T   T   T
  0.2000000029691691  0.0000000000000000  0.0000000000000000   F   F   F
  0.0666700005575436  0.1333300024074902  0.0487800016927409   T   T   T
  0.3333300054223969  0.2666699886457167  0.0975700020844172   T   T   T
  0.2000000029691691  0.0000000000000000  0.1463499963381949   T   T   T
  0.4000000059383453  0.0000000000000000  0.0000000000000000   F   F   F
  0.6666700243653452  0.1333300024074902  0.0487800016927409   T   T   T
  0.5333300232918603  0.2666699886457167  0.0975700020844172   T   T   T
  0.4000000059383453  0.0000000000000000  0.1463499963381949   T   T   T
  0.4000000059828395  0.2000000029901230  0.0000000000000000   F   F   F
  0.6666699648086762  0.3333300053976131  0.0487800016927409   T   T   T
  0.5333300232947593  0.0666700005826328  0.0975700020844172   T   T   T
  0.4000000059828395  0.2000000029901230  0.1463499963381949   T   T   T
  0.6000000238523029  0.2000000029901230  0.0000000000000000   F   F   F
  0.4666700065403759  0.3333300053976131  0.0487800016927409   T   T   T
  0.7333399653703552  0.0666700005826328  0.0975700020844172   T   T   T
  0.6000000238523029  0.2000000029901230  0.1463499963381949   T   T   T
  0.6000000238758432  0.0000000000000000  0.0000000000000000   F   F   F
  0.4666700064958818  0.1333300024074902  0.0487800016927409   T   T   T
  0.7333400249686264  0.2666699886457167  0.0975700020844172   T   T   T
  0.6000000238758432  0.0000000000000000  0.1463499963381949   T   T   T
  0.8000000119447250  0.0000000000000000  0.0000000000000000   F   F   F
  0.9333400130375082  0.2666699886457167  0.0975700020844172   T   T   T
  0.8000000119447250  0.0000000000000000  0.1463499963381949   T   T   T
  0.7999999523200216  0.2000000029901230  0.0000000000000000   F   F   F
  0.9333399534392370  0.0666700005826328  0.0975700020844172   T   T   T
  0.7999999523200216  0.2000000029901230  0.1463499963381949   T   T   T
  0.8666700124787212  0.3333300053976131  0.0487800016927409   T   T   T
  0.8666700124342270  0.1333300024074902  0.0487800016927409   T   T   T
  0.0000000000209468  0.4000000059802389  0.0000000000000000   F   F   F
  0.2666699886267239  0.5333300233147682  0.0487800016927409   T   T   T
  0.1333300173619278  0.6666700244014692  0.0975700020844172   T   T   T
  0.0000000000209468  0.4000000059802389  0.1463499963381949   T   T   T
  0.0000000000055138  0.6000000238188363  0.0000000000000000   F   F   F
  0.2666700184576101  0.7333400249840949  0.0487800016927409   T   T   T
  0.1333300173648269  0.4666700363383853  0.0975700020844172   T   T   T
  0.0000000000055138  0.6000000238188363  0.1463499963381949   T   T   T
  0.2000000178749772  0.6000000238188363  0.0000000000000000   F   F   F
  0.0666700229045603  0.7333400249840949  0.0487800016927409   T   T   T
  0.3333300054337087  0.4666700363383853  0.0975700020844172   T   T   T
  0.2000000178749772  0.6000000238188363  0.1463499963381949   T   T   T
  0.2000000029901230  0.4000000059802389  0.0000000000000000   F   F   F
  0.0666700005578420  0.5333300233147682  0.0487800016927409   T   T   T
  0.3333300054308097  0.6666700244014692  0.0975700020844172   T   T   T
  0.2000000029901230  0.4000000059802389  0.1463499963381949   T   T   T
  0.4000000059592921  0.4000000059802389  0.0000000000000000   F   F   F
  0.6666700244336852  0.5333300233147682  0.0487800016927409   T   T   T
  0.5333300233002731  0.6666700244014692  0.0975700020844172   T   T   T
  0.4000000059592921  0.4000000059802389  0.1463499963381949   T   T   T
  0.4000000357444407  0.6000000238188363  0.0000000000000000   F   F   F
  0.6666700243959554  0.7333400249840949  0.0487800016927409   T   T   T
  0.5333300233031721  0.4666700363383853  0.0975700020844172   T   T   T
  0.4000000357444407  0.6000000238188363  0.1463499963381949   T   T   T
  0.6000000238133225  0.6000000238188363  0.0000000000000000   F   F   F
  0.4666700065264919  0.7333400249840949  0.0487800016927409   T   T   T
  0.7333400249799382  0.4666700363383853  0.0975700020844172   T   T   T
  0.6000000238133225  0.6000000238188363  0.1463499963381949   T   T   T
  0.6000000238287555  0.4000000059802389  0.0000000000000000   F   F   F
  0.4666700064961873  0.5333300233147682  0.0487800016927409   T   T   T
  0.7333400249770392  0.6666700244014692  0.0975700020844172   T   T   T
  0.6000000238287555  0.4000000059802389  0.1463499963381949   T   T   T
  0.8000000118976374  0.4000000059802389  0.0000000000000000   F   F   F
  0.9333400130459211  0.6666700244014692  0.0975700020844172   T   T   T
  0.8000000118976374  0.4000000059802389  0.1463499963381949   T   T   T
  0.8000000118822044  0.6000000238188363  0.0000000000000000   F   F   F
  0.9333400130488130  0.4666700363383853  0.0975700020844172   T   T   T
  0.8000000118822044  0.6000000238188363  0.1463499963381949   T   T   T
  0.8666700124648301  0.7333400249840949  0.0487800016927409   T   T   T
  0.8666700125025670  0.5333300233147682  0.0487800016927409   T   T   T
  0.0000000000419007  0.8000000119604849  0.0000000000000000   F   F   F
  0.2666700184296360  0.9333400725981988  0.0487800016927409   T   T   T
  0.0000000000419007  0.8000000119604849  0.1463499963381949   T   T   T
  0.1333300172909944  0.8666700124645530  0.0975700020844172   T   T   T
  0.3333300054279107  0.8666700124645530  0.0975700020844172   T   T   T
  0.2000000030110698  0.8000000119604849  0.0000000000000000   F   F   F
  0.0666700228765933  0.9333400725981988  0.0487800016927409   T   T   T
  0.2000000030110698  0.8000000119604849  0.1463499963381949   T   T   T
  0.4000000059802389  0.8000000119604849  0.0000000000000000   F   F   F
  0.6666700243679813  0.9333400725981988  0.0487800016927409   T   T   T
  0.4000000059802389  0.8000000119604849  0.1463499963381949   T   T   T
  0.5333300232973741  0.8666700124645530  0.0975700020844172   T   T   T
  0.7333400249741402  0.8666700124645530  0.0975700020844172   T   T   T
  0.6000000238497023  0.8000000119604849  0.0000000000000000   F   F   F
  0.4666700362990994  0.9333400725981988  0.0487800016927409   T   T   T
  0.6000000238497023  0.8000000119604849  0.1463499963381949   T   T   T
  0.8000000119185842  0.8000000119604849  0.0000000000000000   F   F   F
  0.8000000119185842  0.8000000119604849  0.1463499963381949   T   T   T
  0.9333400130430221  0.8666700124645530  0.0975700020844172   T   T   T
  0.8666700124368631  0.9333400725981988  0.0487800016927409   T   T   T
  0.1690762788181601  0.0630359202928616  0.2064787782314284   T   T   T
  0.3939596414850897  0.3309237361083959  0.2064787782314284   T   T   T
  0.0630359276856964  0.1690762937181773  0.2064787782314284   T   T   T
  0.3309237360914494  0.3939596414742255  0.2064787782314284   T   T   T
  0.3230122923579302  0.0000000000000000  0.2394892610299735   T   T   T
  0.2612514495736846  0.0000000000000000  0.2116791344929041   T   T   T
  0.1769876777641457  0.1769876926823457  0.2394892610299735   T   T   T
  0.2387485504533728  0.2387485504396096  0.2116791344929041   T   T   T
  0.9999999999685727  0.3230122923631171  0.2394892610299735   T   T   T
  0.0000000000188862  0.2612514496114571  0.2116791344929041   T   T   T
  0.6690762638906520  0.0630359202928616  0.2064787782314284   T   T   T
  0.8939596414578759  0.3309237361083959  0.2064787782314284   T   T   T
  0.4369640946135576  0.1060403659617961  0.2064787782314284   T   T   T
  0.5630359053420619  0.1690762937181773  0.2064787782314284   T   T   T
  0.8309236765311070  0.3939596414742255  0.2064787782314284   T   T   T
  0.8230122923987579  0.0000000000000000  0.2394892610299735   T   T   T
  0.7612514496145053  0.0000000000000000  0.2116791344929041   T   T   T
  0.6769876480043848  0.1769876926823457  0.2394892610299735   T   T   T
  0.7387485504261591  0.2387485504396096  0.2116791344929041   T   T   T
  0.5000000000094005  0.3230122923631171  0.2394892610299735   T   T   T
  0.4999999999916724  0.2612514496114571  0.2116791344929041   T   T   T
  0.1690762937191437  0.5630359649679164  0.2064787782314284   T   T   T
  0.3939596712515083  0.8309237360809050  0.2064787782314284   T   T   T
  0.0630359351624463  0.6690763235447506  0.2064787782314284   T   T   T
  0.3309237360714974  0.8939597010763123  0.2064787782314284   T   T   T
  0.1060403510668948  0.4369640648311659  0.2064787782314284   T   T   T
  0.3230123221923904  0.4999999999725020  0.2394892610299735   T   T   T
  0.2612514793401104  0.4999999999725020  0.2116791344929041   T   T   T
  0.1769877075779576  0.6769877075818869  0.2394892610299735   T   T   T
  0.2387485504334208  0.7387486100416965  0.2116791344929041   T   T   T
  0.0000000000166622  0.8230123519652039  0.2394892610299735   T   T   T
  0.9999999999847233  0.7612514495839591  0.2116791344929041   T   T   T
  0.6690763234925114  0.5630359649679164  0.2064787782314284   T   T   T
  0.8939596414237130  0.8309237360809050  0.2064787782314284   T   T   T
  0.4369641244295863  0.6060403585493432  0.2064787782314284   T   T   T
  0.5630359650038486  0.6690763235447506  0.2064787782314284   T   T   T
  0.8309237361123181  0.8939597010763123  0.2064787782314284   T   T   T
  0.6060402989226858  0.4369640648311659  0.2064787782314284   T   T   T
  0.8230122923645951  0.4999999999725020  0.2394892610299735   T   T   T
  0.7612514495803495  0.4999999999725020  0.2116791344929041   T   T   T
  0.6769877076187782  0.6769877075818869  0.2394892610299735   T   T   T
  0.7387486100073701  0.7387486100416965  0.2116791344929041   T   T   T
  0.4999999999894484  0.8230123519652039  0.2394892610299735   T   T   T
  0.5000000000255511  0.7612514495839591  0.2116791344929041   T   T   T
  0.9369640349851807  0.1060403659617961  0.2064787782314284   T   T   T
  0.9369640946698254  0.6060403585493432  0.2064787782314284   T   T   T
  0.1060403734439390  0.9369640946577391  0.2064787782314284   T   T   T
  0.6060403585844725  0.9369640946577391  0.2064787782314284   T   T   T
  0.1726077348310184  0.0000000000000000  0.2005543149697147   T   T   T
  0.3273922502634647  0.3273922502854489  0.2005543149697147   T   T   T
  0.0000000000037801  0.1726077348385786  0.2005543149697147   T   T   T
  0.3288701176404416  0.0000000000000000  0.2197990156400849   T   T   T
  0.1711298972644926  0.1711298972283188  0.2197990156400849   T   T   T
  0.9999999999939035  0.3288700878957158  0.2197990156400849   T   T   T
  0.6726077795046734  0.0000000000000000  0.2005543149697147   T   T   T
  0.8273922205037039  0.3273922502854489  0.2005543149697147   T   T   T
  0.5000000000446008  0.1726077348385786  0.2005543149697147   T   T   T
  0.8288700580800992  0.0000000000000000  0.2197990156400849   T   T   T
  0.6711298823369845  0.1711298972283188  0.2197990156400849   T   T   T
  0.5000000000347313  0.3288700878957158  0.2197990156400849   T   T   T
  0.1726077347968555  0.4999999999725020  0.2005543149697147   T   T   T
  0.3273922503098774  0.8273922204824444  0.2005543149697147   T   T   T
  0.0000000000044764  0.6726077795136263  0.2005543149697147   T   T   T
  0.3288701176743203  0.4999999999725020  0.2197990156400849   T   T   T
  0.1711299120974417  0.6711299419033665  0.2197990156400849   T   T   T
  0.0000000000152482  0.8288701176437243  0.2197990156400849   T   T   T
  0.6726077794705105  0.4999999999725020  0.2005543149697147   T   T   T
  0.8273922204820821  0.8273922204824444  0.2005543149697147   T   T   T
  0.4999999999772626  0.6726077795136263  0.2005543149697147   T   T   T
  0.8288700580459434  0.4999999999725020  0.2197990156400849   T   T   T
  0.6711298823376808  0.6711299419033665  0.2197990156400849   T   T   T
  0.5000000595891976  0.8288701176437243  0.2197990156400849   T   T   T
 
  0.00000000E+00  0.00000000E+00  0.00000000E+00
  0.00000000E+00  0.00000000E+00  0.00000000E+00
  0.00000000E+00  0.00000000E+00  0.00000000E+00
  0.00000000E+00  0.00000000E+00  0.00000000E+00
  0.00000000E+00  0.00000000E+00  0.00000000E+00
  0.00000000E+00  0.00000000E+00  0.00000000E+00
  0.00000000E+00  0.00000000E+00  0.00000000E+00
  0.00000000E+00  0.00000000E+00  0.00000000E+00
  0.00000000E+00  0.00000000E+00  0.00000000E+00
  0.00000000E+00  0.00000000E+00  0.00000000E+00
  0.00000000E+00  0.00000000E+00  0.00000000E+00
  0.00000000E+00  0.00000000E+00  0.00000000E+00
  0.00000000E+00  0.00000000E+00  0.00000000E+00
  0.00000000E+00  0.00000000E+00  0.00000000E+00
  0.00000000E+00  0.00000000E+00  0.00000000E+00
  0.00000000E+00  0.00000000E+00  0.00000000E+00
  0.00000000E+00  0.00000000E+00  0.00000000E+00
  0.00000000E+00  0.00000000E+00  0.00000000E+00
  0.00000000E+00  0.00000000E+00  0.00000000E+00
  0.00000000E+00  0.00000000E+00  0.00000000E+00
  0.00000000E+00  0.00000000E+00  0.00000000E+00
  0.00000000E+00  0.00000000E+00  0.00000000E+00
  0.00000000E+00  0.00000000E+00  0.00000000E+00
  0.00000000E+00  0.00000000E+00  0.00000000E+00
  0.00000000E+00  0.00000000E+00  0.00000000E+00
  0.00000000E+00  0.00000000E+00  0.00000000E+00
  0.00000000E+00  0.00000000E+00  0.00000000E+00
  0.00000000E+00  0.00000000E+00  0.00000000E+00
  0.00000000E+00  0.00000000E+00  0.00000000E+00
  0.00000000E+00  0.00000000E+00  0.00000000E+00
  0.00000000E+00  0.00000000E+00  0.00000000E+00
  0.00000000E+00  0.00000000E+00  0.00000000E+00
  0.00000000E+00  0.00000000E+00  0.00000000E+00
  0.00000000E+00  0.00000000E+00  0.00000000E+00
  0.00000000E+00  0.00000000E+00  0.00000000E+00
  0.00000000E+00  0.00000000E+00  0.00000000E+00
  0.00000000E+00  0.00000000E+00  0.00000000E+00
  0.00000000E+00  0.00000000E+00  0.00000000E+00
  0.00000000E+00  0.00000000E+00  0.00000000E+00
  0.00000000E+00  0.00000000E+00  0.00000000E+00
  0.00000000E+00  0.00000000E+00  0.00000000E+00
  0.00000000E+00  0.00000000E+00  0.00000000E+00
  0.00000000E+00  0.00000000E+00  0.00000000E+00
  0.00000000E+00  0.00000000E+00  0.00000000E+00
  0.00000000E+00  0.00000000E+00  0.00000000E+00
  0.00000000E+00  0.00000000E+00  0.00000000E+00
  0.00000000E+00  0.00000000E+00  0.00000000E+00
  0.00000000E+00  0.00000000E+00  0.00000000E+00
  0.00000000E+00  0.00000000E+00  0.00000000E+00
  0.00000000E+00  0.00000000E+00  0.00000000E+00
  0.00000000E+00  0.00000000E+00  0.00000000E+00
  0.00000000E+00  0.00000000E+00  0.00000000E+00
  0.00000000E+00  0.00000000E+00  0.00000000E+00
  0.00000000E+00  0.00000000E+00  0.00000000E+00
  0.00000000E+00  0.00000000E+00  0.00000000E+00
  0.00000000E+00  0.00000000E+00  0.00000000E+00
  0.00000000E+00  0.00000000E+00  0.00000000E+00
  0.00000000E+00  0.00000000E+00  0.00000000E+00
  0.00000000E+00  0.00000000E+00  0.00000000E+00
  0.00000000E+00  0.00000000E+00  0.00000000E+00
  0.00000000E+00  0.00000000E+00  0.00000000E+00
  0.00000000E+00  0.00000000E+00  0.00000000E+00
  0.00000000E+00  0.00000000E+00  0.00000000E+00
  0.00000000E+00  0.00000000E+00  0.00000000E+00
  0.00000000E+00  0.00000000E+00  0.00000000E+00
  0.00000000E+00  0.00000000E+00  0.00000000E+00
  0.00000000E+00  0.00000000E+00  0.00000000E+00
  0.00000000E+00  0.00000000E+00  0.00000000E+00
  0.00000000E+00  0.00000000E+00  0.00000000E+00
  0.00000000E+00  0.00000000E+00  0.00000000E+00
  0.00000000E+00  0.00000000E+00  0.00000000E+00
  0.00000000E+00  0.00000000E+00  0.00000000E+00
  0.00000000E+00  0.00000000E+00  0.00000000E+00
  0.00000000E+00  0.00000000E+00  0.00000000E+00
  0.00000000E+00  0.00000000E+00  0.00000000E+00
  0.00000000E+00  0.00000000E+00  0.00000000E+00
  0.00000000E+00  0.00000000E+00  0.00000000E+00
  0.00000000E+00  0.00000000E+00  0.00000000E+00
  0.00000000E+00  0.00000000E+00  0.00000000E+00
  0.00000000E+00  0.00000000E+00  0.00000000E+00
  0.00000000E+00  0.00000000E+00  0.00000000E+00
  0.00000000E+00  0.00000000E+00  0.00000000E+00
  0.00000000E+00  0.00000000E+00  0.00000000E+00
  0.00000000E+00  0.00000000E+00  0.00000000E+00
  0.00000000E+00  0.00000000E+00  0.00000000E+00
  0.00000000E+00  0.00000000E+00  0.00000000E+00
  0.00000000E+00  0.00000000E+00  0.00000000E+00
  0.00000000E+00  0.00000000E+00  0.00000000E+00
  0.00000000E+00  0.00000000E+00  0.00000000E+00
  0.00000000E+00  0.00000000E+00  0.00000000E+00
  0.00000000E+00  0.00000000E+00  0.00000000E+00
  0.00000000E+00  0.00000000E+00  0.00000000E+00
  0.00000000E+00  0.00000000E+00  0.00000000E+00
  0.00000000E+00  0.00000000E+00  0.00000000E+00
  0.00000000E+00  0.00000000E+00  0.00000000E+00
  0.00000000E+00  0.00000000E+00  0.00000000E+00
  0.00000000E+00  0.00000000E+00  0.00000000E+00
  0.00000000E+00  0.00000000E+00  0.00000000E+00
  0.00000000E+00  0.00000000E+00  0.00000000E+00
  0.00000000E+00  0.00000000E+00  0.00000000E+00
  0.00000000E+00  0.00000000E+00  0.00000000E+00
  0.00000000E+00  0.00000000E+00  0.00000000E+00
  0.00000000E+00  0.00000000E+00  0.00000000E+00
  0.00000000E+00  0.00000000E+00  0.00000000E+00
  0.00000000E+00  0.00000000E+00  0.00000000E+00
  0.00000000E+00  0.00000000E+00  0.00000000E+00
  0.00000000E+00  0.00000000E+00  0.00000000E+00
  0.00000000E+00  0.00000000E+00  0.00000000E+00
  0.00000000E+00  0.00000000E+00  0.00000000E+00
  0.00000000E+00  0.00000000E+00  0.00000000E+00
  0.00000000E+00  0.00000000E+00  0.00000000E+00
  0.00000000E+00  0.00000000E+00  0.00000000E+00
  0.00000000E+00  0.00000000E+00  0.00000000E+00
  0.00000000E+00  0.00000000E+00  0.00000000E+00
  0.00000000E+00  0.00000000E+00  0.00000000E+00
  0.00000000E+00  0.00000000E+00  0.00000000E+00
  0.00000000E+00  0.00000000E+00  0.00000000E+00
  0.00000000E+00  0.00000000E+00  0.00000000E+00
  0.00000000E+00  0.00000000E+00  0.00000000E+00
  0.00000000E+00  0.00000000E+00  0.00000000E+00
  0.00000000E+00  0.00000000E+00  0.00000000E+00
  0.00000000E+00  0.00000000E+00  0.00000000E+00
  0.00000000E+00  0.00000000E+00  0.00000000E+00
  0.00000000E+00  0.00000000E+00  0.00000000E+00
  0.00000000E+00  0.00000000E+00  0.00000000E+00
  0.00000000E+00  0.00000000E+00  0.00000000E+00
  0.00000000E+00  0.00000000E+00  0.00000000E+00
  0.00000000E+00  0.00000000E+00  0.00000000E+00
  0.00000000E+00  0.00000000E+00  0.00000000E+00
  0.00000000E+00  0.00000000E+00  0.00000000E+00
  0.00000000E+00  0.00000000E+00  0.00000000E+00
  0.00000000E+00  0.00000000E+00  0.00000000E+00
  0.00000000E+00  0.00000000E+00  0.00000000E+00
  0.00000000E+00  0.00000000E+00  0.00000000E+00
  0.00000000E+00  0.00000000E+00  0.00000000E+00
  0.00000000E+00  0.00000000E+00  0.00000000E+00
  0.00000000E+00  0.00000000E+00  0.00000000E+00
  0.00000000E+00  0.00000000E+00  0.00000000E+00
  0.00000000E+00  0.00000000E+00  0.00000000E+00
  0.00000000E+00  0.00000000E+00  0.00000000E+00
  0.00000000E+00  0.00000000E+00  0.00000000E+00
  0.00000000E+00  0.00000000E+00  0.00000000E+00
  0.00000000E+00  0.00000000E+00  0.00000000E+00
  0.00000000E+00  0.00000000E+00  0.00000000E+00
  0.00000000E+00  0.00000000E+00  0.00000000E+00
  0.00000000E+00  0.00000000E+00  0.00000000E+00
  0.00000000E+00  0.00000000E+00  0.00000000E+00
  0.00000000E+00  0.00000000E+00  0.00000000E+00
  0.00000000E+00  0.00000000E+00  0.00000000E+00
  0.00000000E+00  0.00000000E+00  0.00000000E+00
  0.00000000E+00  0.00000000E+00  0.00000000E+00
  0.00000000E+00  0.00000000E+00  0.00000000E+00
  0.00000000E+00  0.00000000E+00  0.00000000E+00
  0.00000000E+00  0.00000000E+00  0.00000000E+00
  0.00000000E+00  0.00000000E+00  0.00000000E+00
  0.00000000E+00  0.00000000E+00  0.00000000E+00
  0.00000000E+00  0.00000000E+00  0.00000000E+00
  0.00000000E+00  0.00000000E+00  0.00000000E+00
  0.00000000E+00  0.00000000E+00  0.00000000E+00
  0.00000000E+00  0.00000000E+00  0.00000000E+00
  0.00000000E+00  0.00000000E+00  0.00000000E+00
  0.00000000E+00  0.00000000E+00  0.00000000E+00
  0.00000000E+00  0.00000000E+00  0.00000000E+00
  0.00000000E+00  0.00000000E+00  0.00000000E+00
  0.00000000E+00  0.00000000E+00  0.00000000E+00
  0.00000000E+00  0.00000000E+00  0.00000000E+00
  0.00000000E+00  0.00000000E+00  0.00000000E+00
  0.00000000E+00  0.00000000E+00  0.00000000E+00
  0.00000000E+00  0.00000000E+00  0.00000000E+00
  0.00000000E+00  0.00000000E+00  0.00000000E+00
  0.00000000E+00  0.00000000E+00  0.00000000E+00
  0.00000000E+00  0.00000000E+00  0.00000000E+00
