au_111_4_layers_5x5_with_h2o_6_bilayers_
   1.00000000000000     
    14.6976995467999991    0.0000000000000000    0.0000000000000000
    -7.3488497733999996   12.7285811846999994    0.0000000000000000
     0.0000000000000000    0.0000000000000000   49.2004013061999999
   Au   H    O 
   100   288   144
Selective dynamics
Direct
  0.0000000000000000  0.0000000000000000  0.0000000000000000   F   F   F
  0.2665512326637298  0.1334450056058074  0.0475090434301819   T   T   T
  0.1337358016532093  0.2665268153846725  0.0943827756194864   T   T   T
  0.9999941001506230  0.9999972252630727  0.1430388706908658   T   T   T
  0.9999999999764526  0.2000000029901230  0.0000000000000000   F   F   F
  0.2671027050041133  0.3335465562409681  0.0474358510039465   T   T   T
  0.1327633026524495  0.0666096831414080  0.0944944570913080   T   T   T
  0.0003682857387304  0.2000234709386817  0.1419210187585023   T   T   T
  0.2000000030136633  0.2000000029901230  0.0000000000000000   F   F   F
  0.0668173047613934  0.3333532701065067  0.0475495820918468   T   T   T
  0.3331675158197953  0.0669708375500804  0.0943450508712900   T   T   T
  0.1994283337798279  0.1991382682792775  0.1426560904594254   T   T   T
  0.2000000029691691  0.0000000000000000  0.0000000000000000   F   F   F
  0.0665372708975767  0.1334700513096649  0.0474526621183884   T   T   T
  0.3328898731643406  0.2667752561722878  0.0945479356306080   T   T   T
  0.1996558497068293  0.9996755274321885  0.1419239687207039   T   T   T
  0.4000000059383453  0.0000000000000000  0.0000000000000000   F   F   F
  0.6665513179459523  0.1332469726841836  0.0475498970221864   T   T   T
  0.5327609649277818  0.2663987698730494  0.0944614660619791   T   T   T
  0.3988964303461771  0.9999969050600228  0.1423278349104180   T   T   T
  0.4000000059828395  0.2000000029901230  0.0000000000000000   F   F   F
  0.6666782062305003  0.3333179577628229  0.0476570367606968   T   T   T
  0.5324158372541135  0.0666506665050548  0.0943264731838838   T   T   T
  0.3990594867691684  0.2002449547208371  0.1423789568351239   T   T   T
  0.6000000238523029  0.2000000029901230  0.0000000000000000   F   F   F
  0.4667022590777492  0.3334418998753037  0.0475502407408968   T   T   T
  0.7332475275391630  0.0661381099622673  0.0945494358978323   T   T   T
  0.6005239353429488  0.2002621045041053  0.1420421413913004   T   T   T
  0.6000000238758432  0.0000000000000000  0.0000000000000000   F   F   F
  0.4667694223247381  0.1336834684573631  0.0473453752523127   T   T   T
  0.7336240984257216  0.2663684861584201  0.0944591006972573   T   T   T
  0.5986727393027920  0.0001993054386062  0.1419185934469382   T   T   T
  0.8000000119447250  0.0000000000000000  0.0000000000000000   F   F   F
  0.9330651855923904  0.2662258232318635  0.0943446906271461   T   T   T
  0.8008735299224270  0.0003237578918345  0.1426579707245068   T   T   T
  0.7999999523200216  0.2000000029901230  0.0000000000000000   F   F   F
  0.9334132473995993  0.0661776911152856  0.0944941992542994   T   T   T
  0.7997801130942932  0.1988479485514034  0.1423893008542905   T   T   T
  0.8663167813108430  0.3330920478130253  0.0473420016364301   T   T   T
  0.8665511079124855  0.1331048755761515  0.0475104172503720   T   T   T
  0.0000000000209468  0.4000000059802389  0.0000000000000000   F   F   F
  0.2664214332997332  0.5332248429329098  0.0474534783280802   T   T   T
  0.1334592013738103  0.6666423666257373  0.0943336969031421   T   T   T
  0.0000162268714448  0.3989413631225815  0.1423187828558952   T   T   T
  0.0000000000055138  0.6000000238188363  0.0000000000000000   F   F   F
  0.2667867422046797  0.7335752178907313  0.0474513826338523   T   T   T
  0.1335201615123012  0.4663699292459427  0.0946344115217386   T   T   T
  0.9998127962803736  0.5984740850797294  0.1419201592394188   T   T   T
  0.2000000178749772  0.6000000238188363  0.0000000000000000   F   F   F
  0.0664481804399628  0.7329145444073433  0.0474390010282235   T   T   T
  0.3333847387829110  0.4668685037600753  0.0943306089949374   T   T   T
  0.2003163121782805  0.6006633699940949  0.1421296681301811   T   T   T
  0.2000000029901230  0.4000000059802389  0.0000000000000000   F   F   F
  0.0667539345646304  0.5330322942073167  0.0474942354812242   T   T   T
  0.3333497237738499  0.6667197778468505  0.0943433844730706   T   T   T
  0.2007144904853391  0.3990081980005797  0.1423840743804163   T   T   T
  0.4000000059592921  0.4000000059802389  0.0000000000000000   F   F   F
  0.6669132198228240  0.5332274812689377  0.0473413831394822   T   T   T
  0.5336748928859976  0.6671967908177479  0.0946293130064788   T   T   T
  0.4015280244024098  0.4013445186587603  0.1419156553775949   T   T   T
  0.4000000357444407  0.6000000238188363  0.0000000000000000   F   F   F
  0.6666639350629922  0.7334655164304920  0.0475513641794336   T   T   T
  0.5342431781513000  0.4676111822160323  0.0943242940159905   T   T   T
  0.3993994627088711  0.5996669276766013  0.1421263833954853   T   T   T
  0.6000000238133225  0.6000000238188363  0.0000000000000000   F   F   F
  0.4667825787142448  0.7332106164175514  0.0474516069748958   T   T   T
  0.7336450678026623  0.4672626559666000  0.0944511328521500   T   T   T
  0.6011051638699954  0.6011195170097636  0.1423284431297631   T   T   T
  0.6000000238287555  0.4000000059802389  0.0000000000000000   F   F   F
  0.4669720491727887  0.5337314607224144  0.0474952348781557   T   T   T
  0.7338270949731083  0.6668673935659726  0.0943460167751908   T   T   T
  0.5997426521342462  0.3995149209323756  0.1420354580237486   T   T   T
  0.8000000118976374  0.4000000059802389  0.0000000000000000   F   F   F
  0.9338871937567319  0.6671237409671633  0.0945518856270624   T   T   T
  0.7997332479558921  0.4002735244322508  0.1420398444523485   T   T   T
  0.8000000118822044  0.6000000238188363  0.0000000000000000   F   F   F
  0.9333443151785659  0.4657765191860648  0.0943209926188544   T   T   T
  0.8011699002935302  0.6009438877307147  0.1423842635130583   T   T   T
  0.8669113520852605  0.7334627824667592  0.0475059966483400   T   T   T
  0.8667544132314404  0.5333243807489794  0.0475433212859286   T   T   T
  0.0000000000419007  0.8000000119604849  0.0000000000000000   F   F   F
  0.2665314545003952  0.9331917571826125  0.0475507323414490   T   T   T
  0.9996979880802286  0.8005730732006455  0.1426637726262427   T   T   T
  0.1327822789277704  0.8663130036704629  0.0943844852691171   T   T   T
  0.3328297001188503  0.8665139221421754  0.0946326868274170   T   T   T
  0.2000000030110698  0.8000000119604849  0.0000000000000000   F   F   F
  0.0669332689041227  0.9334825656507491  0.0474552897267912   T   T   T
  0.1982656297293275  0.7992875772686787  0.1423821775943992   T   T   T
  0.4000000059802389  0.8000000119604849  0.0000000000000000   F   F   F
  0.6664766057904359  0.9335560617881100  0.0474356557208040   T   T   T
  0.4003623537699141  0.7997528333963686  0.1421302452171815   T   T   T
  0.5331788955893586  0.8665645318479918  0.0943354340567453   T   T   T
  0.7335045503339046  0.8672326060813020  0.0943880697567892   T   T   T
  0.6000000238497023  0.8000000119604849  0.0000000000000000   F   F   F
  0.4662759898076203  0.9332369822093085  0.0474982347114903   T   T   T
  0.6010045280849141  0.8017196668214694  0.1423855547298842   T   T   T
  0.8000000119185842  0.8000000119604849  0.0000000000000000   F   F   F
  0.8000213848529967  0.8003766126732543  0.1419318689776290   T   T   T
  0.9338380059978491  0.8672481737536444  0.0944963971486814   T   T   T
  0.8665419572189421  0.9330766062537847  0.0474562437989619   T   T   T
  0.1671607201873613  0.0633175168440800  0.2955216825051821   T   T   T
  0.1668017795450609  0.0633289347882808  0.4472704072292757   T   T   T
  0.1664475369564897  0.0631584736973991  0.5995304746448795   T   T   T
  0.3970932585578737  0.3339303446217912  0.2949433334095843   T   T   T
  0.3968484308802118  0.3336325433000340  0.4470389207551690   T   T   T
  0.3968057617791914  0.3332834164148224  0.5993424442193955   T   T   T
  0.1036189015749116  0.1668470321452773  0.2198904115499900   T   T   T
  0.1034575052473556  0.1666849946519307  0.3713041098515220   T   T   T
  0.1034073925486751  0.1666034841907944  0.5233095831354930   T   T   T
  0.0630924274580593  0.3949878801384372  0.2185057590203314   T   T   T
  0.0632364415650173  0.3967916386620232  0.3710239499307590   T   T   T
  0.0631460400199586  0.3966332688861058  0.5230859800840406   T   T   T
  0.1668621948908111  0.1036908528466682  0.2198882001916331   T   T   T
  0.1666868632622638  0.1034507132387574  0.3713035692775222   T   T   T
  0.1666165871398846  0.1033860303963436  0.5233088491873659   T   T   T
  0.3949949041541601  0.0630193936466981  0.2185131209906999   T   T   T
  0.3967724586463532  0.0632143853067504  0.3710174601554144   T   T   T
  0.3966727338429550  0.0631690649821408  0.5230732856269000   T   T   T
  0.0632975351599256  0.1671676668886874  0.2955222207506125   T   T   T
  0.0633387770412241  0.1667956696011501  0.4472692744483453   T   T   T
  0.0632120687147548  0.1664080117045046  0.5995286056435987   T   T   T
  0.3339251156572871  0.3971056195754770  0.2949551061312050   T   T   T
  0.3336339902506111  0.3968438446557201  0.4470503196977518   T   T   T
  0.3333344055958349  0.3967463639663151  0.5993583557640818   T   T   T
  0.1677245547577044  0.9996517721611866  0.1876725452124148   T   T   T
  0.1704786928956779  0.9999741250412058  0.3382894623501187   T   T   T
  0.1701919863167802  0.9999763616383248  0.4902203156698377   T   T   T
  0.2336732185210622  0.9997991245045128  0.2141143306707889   T   T   T
  0.2333494234969820  0.9999848264812954  0.3655992581982304   T   T   T
  0.2332082442217072  0.9999474108075432  0.5175173666082173   T   T   T
  0.3253724993129055  0.3256159529960314  0.1867827563997437   T   T   T
  0.3299647381672841  0.3299788966415420  0.3380910033745579   T   T   T
  0.3296888866100360  0.3296691298702967  0.4900668201497993   T   T   T
  0.2639155278450147  0.2640094987083046  0.2141159807160662   T   T   T
  0.2667750492263963  0.2667845836042844  0.3654183929271184   T   T   T
  0.2667679367158016  0.2667422006567506  0.5174350347301129   T   T   T
  0.9996179911544374  0.1676954887413729  0.1876663227477309   T   T   T
  0.9999703723964117  0.1704850957978437  0.3382910623404882   T   T   T
  0.9999929902624984  0.1701742075249086  0.4902199392479218   T   T   T
  0.9997375754191253  0.2336364711662142  0.2141060712771718   T   T   T
  0.9999995708549463  0.2333647095163016  0.3656010742893301   T   T   T
  0.9999431954041285  0.2331773412953169  0.5175170145443673   T   T   T
  0.3297569295691147  0.0000010895292704  0.2618734549464250   T   T   T
  0.3298387918639563  0.0001093254897455  0.4140826780163778   T   T   T
  0.3299794912832184  0.9998710736860872  0.5659916664708220   T   T   T
  0.2670761246823758  0.0000730109750151  0.2892977308731020   T   T   T
  0.2668242628704576  0.0001216696479531  0.4414322346610717   T   T   T
  0.2665357420475942  0.9997575782757835  0.5935837005939177   T   T   T
  0.1700098156360212  0.1700333022497276  0.2626927343159764   T   T   T
  0.1702849323057549  0.1702767326504002  0.4142441372770307   T   T   T
  0.1696596177348155  0.1696206809345853  0.5661785677169391   T   T   T
  0.2334125567256820  0.2334235497853143  0.2898772325436738   T   T   T
  0.2334259461729715  0.2334171315001399  0.4415217772507916   T   T   T
  0.2330512435816203  0.2329959691559438  0.5937102005096264   T   T   T
  0.0000283410811619  0.3297597784926225  0.2618676194523673   T   T   T
  0.0001471862954432  0.3298598576744496  0.4140841030243365   T   T   T
  0.9998603673792132  0.3299206183911139  0.5659909254200954   T   T   T
  0.0000427078576450  0.2670631695290595  0.2892941710110151   T   T   T
  0.0001531986042309  0.2668377606055401  0.4414325945893722   T   T   T
  0.9997870975543464  0.2664905973456442  0.5935801825529907   T   T   T
  0.6662446628143286  0.0633120454247376  0.2949593744045202   T   T   T
  0.6666191241961457  0.0633467239284897  0.4470568049878949   T   T   T
  0.6662634718713107  0.0631641802570329  0.5993625882965148   T   T   T
  0.8965087240362024  0.3334592500253919  0.2948279962952114   T   T   T
  0.8966790937140630  0.3334252433680618  0.4470007115157060   T   T   T
  0.8967715478843488  0.3332996453512962  0.5992310063689885   T   T   T
  0.4370242588257227  0.1036953969773791  0.2948216552344931   T   T   T
  0.4369081189497237  0.1036584713089539  0.4469907668534674   T   T   T
  0.4363794041685409  0.1028646806919511  0.5992318825914253   T   T   T
  0.6030709247230917  0.1665314393431245  0.2182045906827454   T   T   T
  0.6033950231807950  0.1667546591847255  0.3709098052738113   T   T   T
  0.6032846412564581  0.1665689154859678  0.5230079447223943   T   T   T
  0.5631847796269298  0.3966070223115850  0.2181964857122907   T   T   T
  0.5633413723321965  0.3965855791616022  0.3708965633999242   T   T   T
  0.5632476553340950  0.3965677402355112  0.5230014080268219   T   T   T
  0.4366570697695806  0.3329476310997421  0.2184166712093898   T   T   T
  0.4368900244021816  0.3333796594816221  0.3710198333354739   T   T   T
  0.4367857574629710  0.3333345900498230  0.5230646953823381   T   T   T
  0.6666488574544829  0.1035963759226917  0.2184101855565146   T   T   T
  0.6665771086224908  0.1034887522671681  0.3710337431961577   T   T   T
  0.6665063578978234  0.1033294345582050  0.5230643621186815   T   T   T
  0.8956869931851443  0.0630118032207747  0.2199112934786100   T   T   T
  0.8964739644865034  0.0632148450284618  0.3713114523573822   T   T   T
  0.8964750610900794  0.0631392435507081  0.5233099238200083   T   T   T
  0.5633918378020937  0.1669799319525822  0.2947563634420121   T   T   T
  0.5633978280558978  0.1668983200269807  0.4469385843396836   T   T   T
  0.5634097176151229  0.1663399932037848  0.5991902468567289   T   T   T
  0.8332554103016250  0.3965730846579802  0.2947639020306667   T   T   T
  0.8334441370512735  0.3966823992254689  0.4469336667094979   T   T   T
  0.8332473648673826  0.3968064850935704  0.5991892483762200   T   T   T
  0.6738905394033026  0.9995494364138651  0.1867982796584684   T   T   T
  0.6700461356186906  0.0000273179842978  0.3381123126711074   T   T   T
  0.6702869755224086  0.9999707543227743  0.4900826599507155   T   T   T
  0.7354636255423728  0.9997338946176555  0.2141466406422552   T   T   T
  0.7331918942800897  0.9999777303910875  0.3654440419559748   T   T   T
  0.7331498710057645  0.9999367281036626  0.5174527273787604   T   T   T
  0.8293684887044463  0.3271683134653856  0.1861131309089430   T   T   T
  0.8297393333418128  0.3297027550611062  0.3378128673497756   T   T   T
  0.8296655732258600  0.3296761024061396  0.4899010050596004   T   T   T
  0.7645694861993704  0.2642910826756690  0.2129407139363195   T   T   T
  0.7667601637592725  0.2667468278842122  0.3651466379369523   T   T   T
  0.7667217327822016  0.2667297478747699  0.5172421364801210   T   T   T
  0.4975839479390132  0.1703978775359403  0.1861188614864488   T   T   T
  0.5000030354532754  0.1703266427969936  0.3378111276667255   T   T   T
  0.5000185971908948  0.1703394807217080  0.4899070031294031   T   T   T
  0.4995080467272999  0.2351491887266235  0.2129573489109262   T   T   T
  0.5000081264151248  0.2332712732197777  0.3651480958432103   T   T   T
  0.4999793844802696  0.2331823504176072  0.5172592873360315   T   T   T
  0.8298445821520986  0.9999610353389130  0.2627198796325487   T   T   T
  0.8298452364154585  0.0000633457129240  0.4142657134869268   T   T   T
  0.8299516440063144  0.9998419873843005  0.5661734656841659   T   T   T
  0.7666526267390452  0.0000674202051911  0.2899253911715292   T   T   T
  0.7667632543055447  0.0001026362424099  0.4415500293195009   T   T   T
  0.7664508196957129  0.9997308648676011  0.5937089371799829   T   T   T
  0.6699015145715066  0.1701640296055231  0.2615890339663096   T   T   T
  0.6702409335184711  0.1703611156817146  0.4139213733484368   T   T   T
  0.6696786070177438  0.1695596329668092  0.5658813752793108   T   T   T
  0.7332649767550805  0.2333308883976031  0.2888778580172726   T   T   T
  0.7333347749585855  0.2333514995670072  0.4412359913775816   T   T   T
  0.7331108924269287  0.2330137330317399  0.5934216725937702   T   T   T
  0.5002077927450586  0.3301342445364881  0.2615931708757984   T   T   T
  0.5001865932044041  0.3299279064703953  0.4139095216304014   T   T   T
  0.4998444645872908  0.3300170107558529  0.5658792098546641   T   T   T
  0.5000810574275434  0.2668744501746545  0.2888926926555158   T   T   T
  0.5001361498564307  0.2669249064057766  0.4412367490557187   T   T   T
  0.4998128371198405  0.2664627097890317  0.5934116039163371   T   T   T
  0.1669151290466218  0.5633609239091655  0.2947929059164522   T   T   T
  0.1669058935588836  0.5634051472222836  0.4469713349021092   T   T   T
  0.1663588756577283  0.5633681108146433  0.5992097641765000   T   T   T
  0.3965485717493067  0.8332717753672156  0.2947957584880783   T   T   T
  0.3966913067001627  0.8334417345578089  0.4469618410158276   T   T   T
  0.3968375695701454  0.8332104603257449  0.5992190150383720   T   T   T
  0.3329843836390722  0.4367856266563521  0.2184611524185911   T   T   T
  0.3333780079594177  0.4369071193718028  0.3710376608511368   T   T   T
  0.3333685923080907  0.4367525301805557  0.5230847890594248   T   T   T
  0.1034853267662328  0.6665669073631761  0.2184705282456534   T   T   T
  0.1034868262021433  0.6665787653369435  0.3710535866173785   T   T   T
  0.1033226390295567  0.6664824032700878  0.5230855980525178   T   T   T
  0.0630541606510775  0.8957911916456069  0.2199227713078855   T   T   T
  0.0631967567463789  0.8964739986691939  0.3713102168593565   T   T   T
  0.0631611143751201  0.8964562634831950  0.5233119029640321   T   T   T
  0.1664273637999756  0.6029864621953891  0.2182720146106050   T   T   T
  0.1667468813035029  0.6033974855741278  0.3709346883699709   T   T   T
  0.1665653879982685  0.6032682407743550  0.5230435958524140   T   T   T
  0.3966303052964122  0.5633230665112876  0.2182429245001956   T   T   T
  0.3965847570270853  0.5633523312328919  0.3709191996238062   T   T   T
  0.3965922735668883  0.5632100917108147  0.5230348509672993   T   T   T
  0.0632437859432642  0.6662282137403466  0.2949829379882658   T   T   T
  0.0633561047757212  0.6666184029997950  0.4470697717797876   T   T   T
  0.0631649035918258  0.6662035716045978  0.5993812969884900   T   T   T
  0.3334317538883909  0.8965258587284737  0.2948476190740337   T   T   T
  0.3334319376944777  0.8966722018548197  0.4470194951557218   T   T   T
  0.3333414432822224  0.8967474194226526  0.5992408305729597   T   T   T
  0.1036521044218972  0.4369863056874053  0.2948332007220884   T   T   T
  0.1036706722125160  0.4369187595021842  0.4470124169221350   T   T   T
  0.1028844084554308  0.4363351702361342  0.5992371245830412   T   T   T
  0.1706778647693454  0.4979123906772784  0.1861458611483187   T   T   T
  0.1703433972461141  0.4999962469122892  0.3378291245218108   T   T   T
  0.1703600782892920  0.5000093417357618  0.4899416034160780   T   T   T
  0.2352150892401283  0.4996060543495560  0.2130023439734430   T   T   T
  0.2332941839134293  0.5000309884205549  0.3651694839728989   T   T   T
  0.2331945442306989  0.4999459655454501  0.5172927555053946   T   T   T
  0.3269288191129718  0.8289466685883795  0.1861480031599996   T   T   T
  0.3296644095565995  0.8297083570429962  0.3378329916730607   T   T   T
  0.3296918147126462  0.8296585222401589  0.4899331774270479   T   T   T
  0.2640933369467149  0.7644088836955376  0.2130051315292008   T   T   T
  0.2667270224999569  0.7667360357919506  0.3651706825193131   T   T   T
  0.2667397623400589  0.7667174037427031  0.5172737611791405   T   T   T
  0.9999351567729491  0.6741720533561661  0.1867941076412691   T   T   T
  0.9999978150434288  0.6700476710642107  0.3381154386435554   T   T   T
  0.9999759864471613  0.6702743976394387  0.4900818035173700   T   T   T
  0.9998261394933792  0.7355847420734563  0.2141451650754007   T   T   T
  0.9999796488991564  0.7332045466941679  0.3654478011139872   T   T   T
  0.9999424374670411  0.7331328603935034  0.5174537540479918   T   T   T
  0.3301487006287402  0.5002658478452275  0.2616337536517079   T   T   T
  0.3299280511716631  0.5002015447054617  0.4139407659453695   T   T   T
  0.3300562911600053  0.4997940268598455  0.5659106219922023   T   T   T
  0.2668439988889446  0.5000852849514672  0.2889303977930595   T   T   T
  0.2669180042709343  0.5001428646894084  0.4412686595605351   T   T   T
  0.2664887349559848  0.4997637089504039  0.5934397016322990   T   T   T
  0.1700619087090587  0.6698420917630230  0.2616520584393740   T   T   T
  0.1703731848762970  0.6702411842693294  0.4139557892626371   T   T   T
  0.1695512394839938  0.6696516380736171  0.5659131908434958   T   T   T
  0.2332828984869622  0.7332645672809122  0.2889305364270101   T   T   T
  0.2333753213024465  0.7333463041084158  0.4412687206169679   T   T   T
  0.2330357493982547  0.7330867886356245  0.5934513091547302   T   T   T
  0.9999651941941963  0.8298764797127660  0.2627273888796893   T   T   T
  0.0000553334048021  0.8298380027075538  0.4142666170139648   T   T   T
  0.9998748356810125  0.8299100342157146  0.5661748267056765   T   T   T
  0.0000217287098749  0.7666596866949789  0.2899326348725140   T   T   T
  0.0000991558222836  0.7667547212585433  0.4415506981668784   T   T   T
  0.9997426475669755  0.7663811913316749  0.5937105527657138   T   T   T
  0.6666847415413741  0.5630702277003010  0.2948214175784756   T   T   T
  0.6668405323815705  0.5633089831366860  0.4469969822927311   T   T   T
  0.6663343295481425  0.5632069596373412  0.5992444666539640   T   T   T
  0.8961000221955047  0.8328650761083622  0.2955219562842544   T   T   T
  0.8966212773164060  0.8333865764164301  0.4472770506408423   T   T   T
  0.8966380524561615  0.8331184027831497  0.5995165561895561   T   T   T
  0.4367217733843347  0.6036422172933413  0.2947735750981053   T   T   T
  0.4368239765768465  0.6035853885235127  0.4469481892653491   T   T   T
  0.4362288207402543  0.6027244409754928  0.5992295620657657   T   T   T
  0.8331010024155887  0.4363998479727655  0.2182258659512399   T   T   T
  0.8332172898254342  0.4366286625570552  0.3709124830518178   T   T   T
  0.8332603301017514  0.4366252714368457  0.5230114000942194   T   T   T
  0.6046537959425606  0.6679929834397669  0.2184888392105790   T   T   T
  0.6031786375818911  0.6664030719918870  0.3710237460425816   T   T   T
  0.6031956620747962  0.6663790850396509  0.5230848059601740   T   T   T
  0.5627682163785082  0.8960621539263940  0.2184685440501966   T   T   T
  0.5630648618721779  0.8964621937130559  0.3710399573358174   T   T   T
  0.5631094900509197  0.8964944133522224  0.5230926166870731   T   T   T
  0.4362438488491875  0.8331315802374348  0.2182794036360249   T   T   T
  0.4366203659627743  0.8332171809612774  0.3709378180476293   T   T   T
  0.4366579200326655  0.8332611304937529  0.5230471684490183   T   T   T
  0.6678260057580800  0.6047202006839001  0.2184944185978637   T   T   T
  0.6663876099746062  0.6031988919228937  0.3710195621972048   T   T   T
  0.6664065243946524  0.6031591940205274  0.5230720195115879   T   T   T
  0.8959903143885413  0.5629070952046646  0.2184189734242281   T   T   T
  0.8964636043549916  0.5630778862071395  0.3710243468362506   T   T   T
  0.8964919002981020  0.5630852390631773  0.5230689573850853   T   T   T
  0.5630797172677262  0.6667102030755601  0.2948313813242720   T   T   T
  0.5633021305790180  0.6668422030964436  0.4470165423260681   T   T   T
  0.5632593504476660  0.6662851071217659  0.5992560472419726   T   T   T
  0.8328302572694710  0.8961308687511718  0.2955196721991129   T   T   T
  0.8333946763282043  0.8966256251786291  0.4472775533051419   T   T   T
  0.8331582003939104  0.8965899201444216  0.5995144721140662   T   T   T
  0.6036145762732374  0.4367187936719290  0.2947507426672615   T   T   T
  0.6035911094926476  0.4368281076709479  0.4469162691150785   T   T   T
  0.6027686029800350  0.4361775465958786  0.5992037137845827   T   T   T
  0.6725689873218315  0.5020481699789627  0.1861188223141781   T   T   T
  0.6703235411560513  0.5000188497133351  0.3378116341991841   T   T   T
  0.6703003264783689  0.4999388696266962  0.4898982924579158   T   T   T
  0.7353507958930479  0.5001126499741488  0.2129641563238565   T   T   T
  0.7332441665125344  0.4999833113980330  0.3651508799642400   T   T   T
  0.7331517738244528  0.4999089076241958  0.5172508527798740   T   T   T
  0.8320806114551971  0.8320900729528375  0.1876784612678151   T   T   T
  0.8294774476558047  0.8295039731993512  0.3382799954261415   T   T   T
  0.8297607023357685  0.8297466782318068  0.4902191737721395   T   T   T
  0.7660708796559490  0.7660956216944044  0.2140882425357020   T   T   T
  0.7666236598134191  0.7666411637178356  0.3655879926926175   T   T   T
  0.7667004278285532  0.7666715722666027  0.5175114077200291   T   T   T
  0.5017211511478052  0.6727269348942571  0.1861417067954108   T   T   T
  0.5000060348185684  0.6703586421477183  0.3378250593735572   T   T   T
  0.4999564641789078  0.6702971490388521  0.4899317700194317   T   T   T
  0.4999961047681083  0.7354900415677861  0.2130113539330836   T   T   T
  0.4999646266777873  0.7332616653715149  0.3651692916222515   T   T   T
  0.4999382143333051  0.7331454267788331  0.5172859346312677   T   T   T
  0.8298926315309103  0.4997889671834699  0.2616087017916655   T   T   T
  0.8298327955693097  0.4999694097278180  0.4139196532259959   T   T   T
  0.8300189988259064  0.4998635186333829  0.5658805110864407   T   T   T
  0.7668394154465261  0.5000345365845078  0.2889099500089642   T   T   T
  0.7669042027496431  0.5000783786947878  0.4412440526116868   T   T   T
  0.7664407788417549  0.4997456190988814  0.5934204439906168   T   T   T
  0.6701391444703404  0.6701974412226406  0.2618413572420266   T   T   T
  0.6702664584360036  0.6702891450202983  0.4140745053688519   T   T   T
  0.6697270927205921  0.6696804405651662  0.5659943422595717   T   T   T
  0.7329116240721021  0.7329355944255909  0.2892602562678732   T   T   T
  0.7333364519400689  0.7333490525189816  0.4414159873412373   T   T   T
  0.7330755149232289  0.7330300340541811  0.5935861798326201   T   T   T
  0.4997313895299200  0.8299582321791661  0.2616556649398731   T   T   T
  0.4999573933650368  0.8298137824693086  0.4139494076727885   T   T   T
  0.4999120980469769  0.8300074930564918  0.5659193311811492   T   T   T
  0.5000401486961437  0.7668802939409289  0.2889460816478859   T   T   T
  0.5000662180293673  0.7668810254944844  0.4412738276070982   T   T   T
  0.4998051078487933  0.7664116862303842  0.5934538174495714   T   T   T
  0.9367605022269885  0.1038823398227251  0.2955173090849925   T   T   T
  0.9368730662185456  0.1035726407344129  0.4472666903862006   T   T   T
  0.9362660467877362  0.1029395893529639  0.5995240502786459   T   T   T
  0.9366520500530271  0.3318226462946328  0.2185243771819145   T   T   T
  0.9368231202571238  0.3335769953757577  0.3710303997298539   T   T   T
  0.9367104322086632  0.3334182233684189  0.5230759044551405   T   T   T
  0.9368968546971530  0.6030499574807493  0.2949551861223370   T   T   T
  0.9369246205933521  0.6033860430161440  0.4470427034158959   T   T   T
  0.9362285068809371  0.6027131778953461  0.5993603343204867   T   T   T
  0.9366723559505203  0.8326438193525405  0.2199326391920806   T   T   T
  0.9367383580211737  0.8332504181583076  0.3713144942320739   T   T   T
  0.9367329930421775  0.8332412473254962  0.5233152471229729   T   T   T
  0.3317141077337382  0.9365655208506993  0.2185234984028597   T   T   T
  0.3335567885813191  0.9368011043903763  0.3710361961786930   T   T   T
  0.3334580433232546  0.9367342957753166  0.5230890300656057   T   T   T
  0.1038814115185858  0.9367794570133015  0.2955200156044384   T   T   T
  0.1035669632801941  0.9368625107728121  0.4472681601187958   T   T   T
  0.1029861793742057  0.9362120956719764  0.5995273239193182   T   T   T
  0.8325895057973369  0.9366373415908100  0.2199304093739798   T   T   T
  0.8332468447556494  0.9367555002549608  0.3713150496980546   T   T   T
  0.8332502965286750  0.9367114072646530  0.5233136283520210   T   T   T
  0.6030531383166675  0.9369695220972858  0.2949685930915535   T   T   T
  0.6033859697173796  0.9369152068743176  0.4470517514351044   T   T   T
  0.6027782751702304  0.9362308844753713  0.5993767067741302   T   T   T
  0.1669248116080411  0.9997172653425039  0.2078282343861915   T   T   T
  0.1680876970188976  0.9999366158701690  0.3585248907648975   T   T   T
  0.1679599709354207  0.9999111722482681  0.5104503675657170   T   T   T
  0.1688102787146093  0.0000454047043803  0.3027534306220900   T   T   T
  0.1681650898568989  0.0000938284975618  0.4546298746538824   T   T   T
  0.1700957233019267  0.9996900190994111  0.6056302187912479   T   T   T
  0.3295053564936268  0.3296193263556830  0.2068226401865587   T   T   T
  0.3319719674944963  0.3319936763884144  0.3583212950432824   T   T   T
  0.3319094541584846  0.3318869017877972  0.5102962573118788   T   T   T
  0.3329902002047262  0.3329863770525847  0.3025051344001213   T   T   T
  0.3324031293293430  0.3323884466392855  0.4544695542548212   T   T   T
  0.3298559647137722  0.3297869391020996  0.6055371823092415   T   T   T
  0.9996148730139041  0.1668665309835831  0.2078224067944987   T   T   T
  0.9999472807958085  0.1681005586119824  0.3585266456984328   T   T   T
  0.9999302304447824  0.1679377846873393  0.5104496939323084   T   T   T
  0.0000207196487594  0.1688068321644280  0.3027538698302408   T   T   T
  0.0001077062520096  0.1681651177598340  0.4546287246861738   T   T   T
  0.9997391640835716  0.1700494690058036  0.6056262183907322   T   T   T