au_111_4_layers_5x5_with_h2o_6_bilayers_
   1.00000000000000     
    14.6976995467999991    0.0000000000000000    0.0000000000000000
    -7.3488497733999996   12.7285811846999994    0.0000000000000000
     0.0000000000000000    0.0000000000000000   49.2004013061999999
   Au   H    O 
   100   144    72
Selective dynamics
Direct
  0.0000000000000000  0.0000000000000000  0.0000000000000000   F   F   F
  0.2665628116867786  0.1334805920692774  0.0474741758687558   T   T   T
  0.1335984771101303  0.2665307831580041  0.0943195959775346   T   T   T
  0.0000068119769768  0.0000073241276413  0.1426938910963322   T   T   T
  0.9999999999764526  0.2000000029901230  0.0000000000000000   F   F   F
  0.2670640827592217  0.3335532668919967  0.0474061537743385   T   T   T
  0.1328705694315361  0.0666862752737188  0.0944096994835647   T   T   T
  0.0002435909741211  0.2000627685496586  0.1417571615311180   T   T   T
  0.2000000030136633  0.2000000029901230  0.0000000000000000   F   F   F
  0.0667768611001398  0.3333753801556389  0.0475141031168342   T   T   T
  0.3333028425243721  0.0670737099253528  0.0942892961803566   T   T   T
  0.1993995432246607  0.1991768249254799  0.1424444640833269   T   T   T
  0.2000000029691691  0.0000000000000000  0.0000000000000000   F   F   F
  0.0665178223261346  0.1334654858791481  0.0474147944926048   T   T   T
  0.3329380774690105  0.2669087087519623  0.0944892717124163   T   T   T
  0.1998273882373176 -0.0002402095265998  0.1417564502062011   T   T   T
  0.4000000059383453  0.0000000000000000  0.0000000000000000   F   F   F
  0.6665306482503971  0.1332366414019123  0.0475224201275174   T   T   T
  0.5327723882475807  0.2664433874917107  0.0944297368052445   T   T   T
  0.3988383039046114  0.0000699427078679  0.1422170708704961   T   T   T
  0.4000000059828395  0.2000000029901230  0.0000000000000000   F   F   F
  0.6666624951209740  0.3333283227799602  0.0476332851771125   T   T   T
  0.5323511697884075  0.0666776489250558  0.0942866863338350   T   T   T
  0.3990445140446169  0.2004036785709263  0.1422456683703809   T   T   T
  0.6000000238523029  0.2000000029901230  0.0000000000000000   F   F   F
  0.4667059247376983  0.3334687547856549  0.0475221545210431   T   T   T
  0.7330901037237315  0.0660276069214467  0.0944889709379538   T   T   T
  0.6005588895508989  0.2002761026404271  0.1419394035489393   T   T   T
  0.6000000238758432  0.0000000000000000  0.0000000000000000   F   F   F
  0.4668068395792468  0.1337235103769846  0.0473101927964153   T   T   T
  0.7335551055413297  0.2663332614984641  0.0944308107445936   T   T   T
  0.5983463644650626  0.0000187546408226  0.1417083213266454   T   T   T
  0.8000000119447250  0.0000000000000000  0.0000000000000000   F   F   F
  0.9329229931055419  0.2662211615377850  0.0942885783081722   T   T   T
  0.8008234393111814  0.0002203207058433  0.1424434599677550   T   T   T
  0.7999999523200216  0.2000000029901230  0.0000000000000000   F   F   F
  0.9333124268650557  0.0661846209002673  0.0944093825744302   T   T   T
  0.7995963940475745  0.1986402171730713  0.1422457737299684   T   T   T
  0.8662678850177545  0.3330748348038340  0.0473103457212915   T   T   T
  0.8665176723636907  0.1330781323750035  0.0474733437762372   T   T   T
  0.0000000000209468  0.4000000059802389  0.0000000000000000   F   F   F
  0.2664149495855427  0.5332239525030419  0.0474311014928174   T   T   T
  0.1336080512526223  0.6667031158144674  0.0942781020145549   T   T   T
 -0.0000772272014775  0.3987609536406865  0.1422161261678392   T   T   T
  0.0000000000055138  0.6000000238188363  0.0000000000000000   F   F   F
  0.2668150472398719  0.7335867164728685  0.0474300692269137   T   T   T
  0.1334696233419375  0.4663268026581794  0.0946101432605469   T   T   T
 -0.0000348858384744  0.5983324906149883  0.1417029725213090   T   T   T
  0.2000000178749772  0.6000000238188363  0.0000000000000000   F   F   F
  0.0664911557169459  0.7329330813904424  0.0474054312607237   T   T   T
  0.3333053994398320  0.4668948012782034  0.0942808205672298   T   T   T
  0.2003043285141730  0.6005885639727531  0.1420016682289935   T   T   T
  0.2000000029901230  0.4000000059802389  0.0000000000000000   F   F   F
  0.0667710382074322  0.5330265623247136  0.0474781113520195   T   T   T
  0.3333318810537200  0.6666614604350788  0.0943055000426309   T   T   T
  0.2006821939753403  0.3989486624027563  0.1422586413084483   T   T   T
  0.4000000059592921  0.4000000059802389  0.0000000000000000   F   F   F
  0.6669215724882548  0.5331896109328064  0.0473107663697879   T   T   T
  0.5336659381268336  0.6671345269710599  0.0946113295210152   T   T   T
  0.4016568587506846  0.4016263444866507  0.1417175839002580   T   T   T
  0.4000000357444407  0.6000000238188363  0.0000000000000000   F   F   F
  0.6666241557195983  0.7334013270928150  0.0475147635651934   T   T   T
  0.5343189594871068  0.4676482576596185  0.0942878049511445   T   T   T
  0.3993917654195694  0.5997059623544718  0.1420028094243756   T   T   T
  0.6000000238133225  0.6000000238188363  0.0000000000000000   F   F   F
  0.4667797296074839  0.7331940083220053  0.0474312731290770   T   T   T
  0.7336711077019453  0.4672202716871490  0.0944295014556259   T   T   T
  0.6012223432576498  0.6011560948744651  0.1422178759200622   T   T   T
  0.6000000238287555  0.4000000059802389  0.0000000000000000   F   F   F
  0.4669738341481521  0.5337435244865616  0.0474788788900121   T   T   T
  0.7337667432244501  0.6666946463668761  0.0942892197477078   T   T   T
  0.5997141692533933  0.3994452613487081  0.1419380149196721   T   T   T
  0.8000000118976374  0.4000000059802389  0.0000000000000000   F   F   F
  0.9339671889407458  0.6670598379738563  0.0944868894460146   T   T   T
  0.7997369757762258  0.4002882862193902  0.1419415286122443   T   T   T
  0.8000000118822044  0.6000000238188363  0.0000000000000000   F   F   F
  0.9333280396237748  0.4656651740917016  0.0942849414401341   T   T   T
  0.8013469138488403  0.6009559383294646  0.1422430974110845   T   T   T
  0.8669171762192679  0.7334337851444555  0.0474737501546364   T   T   T
  0.8667658555910632  0.5332946435956003  0.0475216062544434   T   T   T
  0.0000000000419007  0.8000000119604849  0.0000000000000000   F   F   F
  0.2665942566599311  0.9332203864527172  0.0475146422977424   T   T   T
 -0.0002262584452131  0.8006070096596314  0.1424430288232106   T   T   T
  0.1329278334937427  0.8664000778243649  0.0943191444056883   T   T   T
  0.3328639758389837  0.8665344125755475  0.0946111526653912   T   T   T
  0.2000000030110698  0.8000000119604849  0.0000000000000000   F   F   F
  0.0669499608966663  0.9334845661317329  0.0474148660849760   T   T   T
  0.1982635162840494  0.7993139259131641  0.1422581682089391   T   T   T
  0.4000000059802389  0.8000000119604849  0.0000000000000000   F   F   F
  0.6664427001961236  0.9335100104431135  0.0474072713799081   T   T   T
  0.4002643425376742  0.7996625354062747  0.1420040148166827   T   T   T
  0.5330934614699667  0.8663948029054582  0.0942819929371226   T   T   T
  0.7334686674894562  0.8670649335425751  0.0943197444444564   T   T   T
  0.6000000238497023  0.8000000119604849  0.0000000000000000   F   F   F
  0.4662602020076411  0.9332322393475387  0.0474793632097025   T   T   T
  0.6010496168021152  0.8017258684769599  0.1422585691355800   T   T   T
  0.8000000119185842  0.8000000119604849  0.0000000000000000   F   F   F
  0.7999455031391088  0.8001799728688050  0.1417580455693338   T   T   T
  0.9338151847055169  0.8671297578394892  0.0944086562191526   T   T   T
  0.8665340876934262  0.9330502279106235  0.0474142230315820   T   T   T
  0.1677129593975955  0.0632591987401352  0.2967814989129267   T   T   T
  0.3971575710733566  0.3340858666531388  0.2960401057807994   T   T   T
  0.1048258418229073  0.1678925691337751  0.2203824551873000   T   T   T
  0.1041192184640676  0.1675296031051048  0.3733893379648326   T   T   T
  0.0632810845163810  0.3941666824454376  0.2189697978151003   T   T   T
  0.0633912946816271  0.3966485346737335  0.3732435774347320   T   T   T
  0.1679301882321853  0.1048261595076728  0.2203763134639124   T   T   T
  0.1675294559115606  0.1041179831654998  0.3733893562644561   T   T   T
  0.3941238777138429  0.0631763482090385  0.2189823325917840   T   T   T
  0.3966571031406229  0.0634065996106277  0.3732339113204671   T   T   T
  0.0632742208257654  0.1677129649650020  0.2967806324017725   T   T   T
  0.3340841627163865  0.3971551920906871  0.2960540246889884   T   T   T
  0.1682656785468039 -0.0002421625520611  0.1881364894765460   T   T   T
  0.1720374446171167 -0.0000345883400672  0.3403962002993647   T   T   T
  0.2342201118402881 -0.0001099803590037  0.2146967888200682   T   T   T
  0.2346411150901488  0.0000092813738570  0.3679585292816402   T   T   T
  0.3239346411045455  0.3242152300696833  0.1870587835062223   T   T   T
  0.3297682314571331  0.3297575637839201  0.3401906107012709   T   T   T
  0.2637388204125446  0.2637891647841268  0.2146915029209775   T   T   T
  0.2661912254873203  0.2661900320688844  0.3676303988698797   T   T   T
 -0.0001625107032863  0.1682957822250959  0.1881391356928151   T   T   T
  0.9999757721373346  0.1720414102537505  0.3403955124937993   T   T   T
 -0.0000484556727743  0.2342455193090230  0.2146978002829478   T   T   T
  0.0000021172140315  0.2346358022482750  0.3679581138945117   T   T   T
  0.3282353605457375  0.0000436101798503  0.2633498362519250   T   T   T
  0.2661962632126550  0.0000243258597386  0.2908382526400041   T   T   T
  0.1723121429430388  0.1722921938744482  0.2641489484119115   T   T   T
  0.2349030281969627  0.2348910072998314  0.2914160137754234   T   T   T
  0.0001283874184878  0.3282779031302367  0.2633488178062896   T   T   T
  0.0000491167672257  0.2662073546128574  0.2908370176633165   T   T   T
  0.6660261226996221  0.0631090664957755  0.2960603241328685   T   T   T
  0.8955555797182919  0.3326827651280030  0.2961298214656164   T   T   T
  0.4371529370844527  0.1046276645180931  0.2961274138426455   T   T   T
  0.6031629784878846  0.1670568199402453  0.2183257261994317   T   T   T
  0.6037846711504296  0.1674439635716904  0.3732606263861487   T   T   T
  0.5638918156249439  0.3968308638864160  0.2183025065689089   T   T   T
  0.5636526541079165  0.3961752468233930  0.3732790024197896   T   T   T
  0.4374183640594264  0.3333350574509842  0.2185711645900708   T   T   T
  0.4369858404603370  0.3330549076919748  0.3734222797005720   T   T   T
  0.6666548615396173  0.1041039905566514  0.2185708466230274   T   T   T
  0.6669075644127116  0.1038885698749167  0.3734002009791689   T   T   T
  0.8948695866027618  0.0629682197035403  0.2203895721830418   T   T   T
  0.8958742375395694  0.0634252854715298  0.3733957692762331   T   T   T
  0.5632987175797015  0.1678551860541067  0.2959059027700895   T   T   T
  0.8323302789899760  0.3956024588692943  0.2958963354055707   T   T   T
  0.6757528905496296 -0.0002184552426688  0.1870342473536994   T   T   T
  0.6703057554770966 -0.0000179094467928  0.3401980424210273   T   T   T
  0.7360856270755638 -0.0000778285500277  0.2146842678530326   T   T   T
  0.7338578520343060  0.0000016164694238  0.3676483168831409   T   T   T
  0.8290540606256447  0.3248659885397909  0.1863903531771891   T   T   T
  0.8279949200094421  0.3283863208578136  0.3399700199504588   T   T   T
  0.7637223167843424  0.2632105825232584  0.2133673365934187   T   T   T
  0.7655550957822170  0.2656843671071182  0.3675780547050703   T   T   T
  0.4958108352186417  0.1709907013630198  0.1863770083638437   T   T   T
  0.5003588733340778  0.1721276922800974  0.3399651842018921   T   T   T
  0.4994899349742894  0.2363314611951695  0.2133541312741914   T   T   T
  0.5001201929183772  0.2345151373584017  0.3675935245943104   T   T   T
  0.8276766900696110 -0.0000131153211009  0.2641561550143748   T   T   T
  0.7651696292553773  0.0000287405266877  0.2914329776345104   T   T   T
  0.6712063443455029  0.1719323751523399  0.2627024011460448   T   T   T
  0.7339089630205140  0.2341517834511127  0.2901384850388690   T   T   T
  0.5007595291887361  0.3288657651617521  0.2626790431503704   T   T   T
  0.5002589234020450  0.2661793750801750  0.2901251349793093   T   T   T
  0.1678456217148782  0.5633073522032382  0.2959366237978646   T   T   T
  0.3956248513913514  0.8323418291037541  0.2959276154906438   T   T   T
  0.3333488597260245  0.4374729006988597  0.2186244604454265   T   T   T
  0.3330565802186846  0.4369824225758032  0.3734282274609709   T   T   T
  0.1041323745220624  0.6666414717908703  0.2186239668567586   T   T   T
  0.1038809582771598  0.6669056452936639  0.3734070443651721   T   T   T
  0.0629466274464146  0.8948788445271818  0.2203921242992757   T   T   T
  0.0634262965647838  0.8958722955257494  0.3733963280320369   T   T   T
  0.1670762545816074  0.6031328693403074  0.2183770672965688   T   T   T
  0.1674350536447526  0.6037831373489774  0.3732766391417831   T   T   T
  0.3968662544024225  0.5639547248224861  0.2183532101209917   T   T   T
  0.3961801001793346  0.5636481504462898  0.3732942939570112   T   T   T
  0.0631167468259515  0.6660309971544558  0.2960744901205157   T   T   T
  0.3326998462825955  0.8955698706246096  0.2961475808559819   T   T   T
  0.1046159683919204  0.4371542057651560  0.2961442744651467   T   T   T
  0.1713502819636876  0.4961398617153013  0.1863947459088300   T   T   T
  0.1721076754807174  0.5003470901155510  0.3399826508165965   T   T   T
  0.2364419096365742  0.4995753061822478  0.2133970507349824   T   T   T
  0.2345062156153512  0.5001164104408056  0.3676092519783685   T   T   T
  0.3248207403467941  0.8287068432930437  0.1864091163319945   T   T   T
  0.3283902824426019  0.8280090367691492  0.3399875355407464   T   T   T
  0.2631714988008402  0.7636151801628990  0.2134106492767295   T   T   T
  0.2656824504680410  0.7655597554761431  0.3675944314811329   T   T   T
  0.0003245993333571  0.6760303723215719  0.1870332032627386   T   T   T
  0.9999622546619517  0.6702944279764519  0.3401979157654160   T   T   T
  0.0000250609422724  0.7361432613940603  0.2146832621369083   T   T   T
 -0.0000009745516394  0.7338558891355219  0.3676480839028302   T   T   T
  0.3288893125017024  0.5008022983310533  0.2627211444772731   T   T   T
  0.2661678379307156  0.5002652199856227  0.2901644594826166   T   T   T
  0.1719522464458931  0.6711897050408268  0.2627444817734181   T   T   T
  0.2341765690884682  0.7339247653574508  0.2901773754279105   T   T   T
 -0.0000378032530378  0.8276647792424449  0.2641557171250576   T   T   T
  0.0000117039893213  0.7651602477362139  0.2914325574472198   T   T   T
  0.6674285419065615  0.5628663549587613  0.2961406223619572   T   T   T
  0.8955537387374644  0.8323139769472864  0.2967780337183864   T   T   T
  0.4367234160304433  0.6044914109747174  0.2959206177387911   T   T   T
  0.8330170075442497  0.4361617109092195  0.2183354472419412   T   T   T
  0.8325248502037345  0.4363840807473428  0.3732874702657011   T   T   T
  0.6056593697451725  0.6689035066739282  0.2189719674560099   T   T   T
  0.6032790391379859  0.6666285357141255  0.3732367394328128   T   T   T
  0.5625577347233062  0.8959597413929736  0.2186140716836718   T   T   T
  0.5630571491339562  0.8960586443170019  0.3734168647176003   T   T   T
  0.4360960214783727  0.8329931381630519  0.2183851477517706   T   T   T
  0.4363919560453948  0.8325287676580926  0.3733024886875244   T   T   T
  0.6688389326734648  0.6056962493575873  0.2189829562600790   T   T   T
  0.6666408287467117  0.6032689333377746  0.3732268950800550   T   T   T
  0.8959927804903772  0.5626156119859630  0.2185612003782264   T   T   T
  0.8960546267291435  0.5630515606463313  0.3734113520340140   T   T   T
  0.5628676140090957  0.6674111159456640  0.2961588791294768   T   T   T
  0.8323129506090139  0.8955657018835964  0.2967779414815516   T   T   T
  0.6045136632898658  0.4367302605220729  0.2958885583936516   T   T   T
  0.6752651079200465  0.5041529958466648  0.1863743415396376   T   T   T
  0.6716620114307025  0.4995459655922262  0.3399651719609882   T   T   T
  0.7369022387617213  0.5005148751666513  0.2133628415547545   T   T   T
  0.7343472689094434  0.4998559057302975  0.3675894031777356   T   T   T
  0.8314509549200353  0.8314916620576971  0.1881439463600857   T   T   T
  0.8279539554126302  0.8279582605546958  0.3403980592308934   T   T   T
  0.7655463674952325  0.7655749366519268  0.2146974435756603   T   T   T
  0.7653695118426098  0.7653640794689213  0.3679511919581575   T   T   T
  0.5038356587697214  0.6753023323658560  0.1863917832886910   T   T   T
  0.4995601139812615  0.6716512330910780  0.3399834670031107   T   T   T
  0.5004386816787828  0.7369375723580661  0.2134043794841499   T   T   T
  0.4998654784459509  0.7343451369468996  0.3676055031230093   T   T   T
  0.8281597398073159  0.4993827897388536  0.2626954340351093   T   T   T
  0.7659174167171193  0.4998035516738640  0.2901381475169909   T   T   T
  0.6716793520170706  0.6717204740103870  0.2633484927038434   T   T   T
  0.7337822073445667  0.7337927050293644  0.2908276705810835   T   T   T
  0.4993384270002986  0.8281339908078164  0.2627369618544311   T   T   T
  0.4997964717949215  0.7658930466209474  0.2901771455506246   T   T   T
  0.9367737401512978  0.1044493289132209  0.2967701187504838   T   T   T
  0.9369174777075019  0.3310117584351519  0.2189980808574588   T   T   T
  0.9366767519325716  0.3332991026565669  0.3732487601712019   T   T   T
  0.9369603498569209  0.6029543703980688  0.2960479414445575   T   T   T
  0.9367679728976495  0.8317634790643224  0.2203955472678721   T   T   T
  0.9366033373426802  0.8324524084901617  0.3734070950984010   T   T   T
  0.3309451828973439  0.9368115834103268  0.2189892165368825   T   T   T
  0.3333095109295525  0.9366926162829553  0.3732576691181512   T   T   T
  0.1044377176327311  0.9367588335047338  0.2967706695110509   T   T   T
  0.8317876978916131  0.9367901836238312  0.2204006601847974   T   T   T
  0.8324514023094464  0.9366021992887922  0.3734075635832646   T   T   T
  0.6029530731720603  0.9369528142839194  0.2960618237907781   T   T   T
  0.1670554310858776 -0.0002107431371409  0.2081989847403347   T   T   T
  0.1687885914120752 -0.0000386190595136  0.3604693688992577   T   T   T
  0.1698948941512156 -0.0000068775920160  0.3036235350474202   T   T   T
  0.3294624070583644  0.3295619413169599  0.2069909274637960   T   T   T
  0.3321997649194308  0.3322003125301757  0.3602674796366163   T   T   T
  0.3326980672685934  0.3326832989304927  0.3033440916157588   T   T   T
 -0.0001909483854821  0.1670581070752967  0.2082010427210840   T   T   T
 -0.0000352304384333  0.1687880574511107  0.3604688254950837   T   T   T
  0.0000122015610507  0.1699032440689516  0.3036225730161801   T   T   T
  0.3316138443052796  0.0000827960974659  0.2833992559095954   T   T   T
  0.3298031486836232 -0.0000014475004263  0.2263291983860396   T   T   T
  0.3300175189479891  0.0000629191430625  0.3794670469670386   T   T   T
  0.1692683506780887  0.1692559154261843  0.2842172600018181   T   T   T
  0.1701314299156040  0.1701093908890337  0.2274213219568158   T   T   T
  0.1712465432990481  0.1712454339644927  0.3793455853553525   T   T   T
  0.0001072645171813  0.3316252813818861  0.2833980917737568   T   T   T
  0.0001113065222891  0.3298623813963986  0.2263274078422942   T   T   T
  0.0000334378497517  0.3299988693540890  0.3794673881696063   T   T   T
  0.6703556413526895 -0.0000632007740992  0.2069655469479966   T   T   T
  0.6678299495021217 -0.0000450275350164  0.3602749019877176   T   T   T
  0.6674101037739920  0.0000393094290670  0.3033601211965271   T   T   T
  0.8310356546859962  0.3288465272859056  0.2063606389120950   T   T   T
  0.8313455056618140  0.3314613111441700  0.3600352660856609   T   T   T
  0.8301643374329415  0.3305171886440122  0.3030053829970999   T   T   T
  0.4978069486341213  0.1690103672478734  0.2063471791794937   T   T   T
  0.5000732713801680  0.1687224276975392  0.3600295553047567   T   T   T
  0.5003724478142819  0.1700181080523095  0.3030097224907186   T   T   T
  0.8308004982951439  0.0000353741922437  0.2842243130165917   T   T   T
  0.8295987281722669 -0.0001047667334492  0.2274442351739764   T   T   T
  0.8287715620460451  0.0000240537172884  0.3793717232269721   T   T   T
  0.6683997004539446  0.1687855945525369  0.2827531566615399   T   T   T
  0.6678723494810038  0.1689020484101002  0.2255821730277832   T   T   T
  0.6706380726770627  0.1709859561742915  0.3794008089698703   T   T   T
  0.5004208334210127  0.3316934937475953  0.2827293076848218   T   T   T
  0.5010292319087783  0.3321464314194851  0.2255702817739407   T   T   T
  0.5003489203261401  0.3293493820058255  0.3794396191933474   T   T   T
  0.1691436676081906  0.4978861747278274  0.2063643120600436   T   T   T
  0.1687139866930585  0.5000719875658468  0.3600475984083374   T   T   T
  0.1699912772849385  0.5003605084296389  0.3030360357213397   T   T   T
  0.3287791587558473  0.8309072813550851  0.2063787679614686   T   T   T
  0.3314615263532896  0.8313478101373704  0.3600534996778088   T   T   T
  0.3305367956294405  0.8301916887419367  0.3030320030089019   T   T   T
  0.0001290581398872  0.6704573939860872  0.2069645217406826   T   T   T
  0.9999553576314386  0.6678287706662625  0.3602747053384834   T   T   T
  0.0000155905401679  0.6673976916229036  0.3033604108729493   T   T   T
  0.3316920240850856  0.5004342947255142  0.2827721532989869   T   T   T
  0.3321987410397729  0.5010989452458403  0.2256310729953806   T   T   T
  0.3293507042543705  0.5003380992195937  0.3794523068610827   T   T   T
  0.1688071186484550  0.6684066262280237  0.2827957225500253   T   T   T
  0.1689093764188624  0.6678213747320351  0.2256438645083486   T   T   T
  0.1709706867657397  0.6706367135842957  0.3794156752613336   T   T   T
  0.0000172792032437  0.8307903114540404  0.2842242613991904   T   T   T
 -0.0001329266548426  0.8295892788373979  0.2274432690014871   T   T   T
  0.0000225796936714  0.8287698529855778  0.3793715581961473   T   T   T
  0.6712300811450447  0.5021091048731333  0.2063440091647881   T   T   T
  0.6685521835586149  0.4998166087919205  0.3600302904788546   T   T   T
  0.6695829928558161  0.4996319628043978  0.3030141212110997   T   T   T
  0.8326694566646824  0.8326791803462844  0.2082072075691140   T   T   T
  0.8311939728044634  0.8311950440854680  0.3604710672575477   T   T   T
  0.8300779814897050  0.8300862950304635  0.3036160925876819   T   T   T
  0.5020409353707451  0.6712944308103448  0.2063604435391980   T   T   T
  0.4998230325548633  0.6685450335109484  0.3600485816123712   T   T   T
  0.4996420878783971  0.6695624546854761  0.3030414614915001   T   T   T
  0.8313161758139774  0.4997264445723905  0.2827455221277516   T   T   T
  0.8312034564086699  0.4990500941384946  0.2255854395948478   T   T   T
  0.8289860841582188  0.4996943002766123  0.3794328385822494   T   T   T
  0.6683849275576460  0.6683950274805245  0.2833982486989408   T   T   T
  0.6699528209084079  0.6700089435366744  0.2263239453585523   T   T   T
  0.6699496473697518  0.6699314177344082  0.3794439894027840   T   T   T
  0.4997126771900113  0.8312934456682649  0.2827884181931130   T   T   T
  0.4989777953084596  0.8311917740617626  0.2256454181071241   T   T   T
  0.4997076414990775  0.8289973290380411  0.3794451026895824   T   T   T
