bilayer_2                               
   1.00000000000000     
    14.6976995467999991    0.0000000000000000    0.0000000000000000
    -7.3488497733999996   12.7285811846999994    0.0000000000000000
     0.0000000000000000    0.0000000000000000   49.2004013061999999
   H    O 
    96    48
Selective dynamics
Direct
  0.1690762797514047  0.0630359231332365  0.2904657811888847   T   T   T
  0.3939596453818246  0.3309237382485894  0.2904657811888847   T   T   T
  0.1059453586803944  0.1691214441186183  0.2088877545766926   T   T   T
  0.0631760874382240  0.3940546523196100  0.2088877545766926   T   T   T
  0.1691214321186173  0.1059453576803907  0.2088877545766926   T   T   T
  0.3940546363196087  0.0631760864382275  0.2088877545766926   T   T   T
  0.0630359301332335  0.1690762907514092  0.2904657811888847   T   T   T
  0.3309237262485885  0.3939596423818278  0.2904657811888847   T   T   T
  0.1764358989021929  0.0000000000000000  0.1760237197160640   T   T   T
  0.2386376984664768  0.0000000000000000  0.2036700456634840   T   T   T
  0.3235640830978056  0.3235640820978020  0.1760237197160640   T   T   T
  0.2613623025335196  0.2613623045335198  0.2036700456634840   T   T   T
  0.0000000049999969  0.1764359089021937  0.1760237197160640   T   T   T
  0.0000000029999967  0.2386377054664738  0.2036700456634840   T   T   T
  0.3230123069542491  0.0000000000000000  0.2574552829001100   T   T   T
  0.2612514599649678  0.0000000000000000  0.2852654160367552   T   T   T
  0.1769876810457502  0.1769876860457470  0.2574552829001100   T   T   T
  0.2387485440350324  0.2387485470350291  0.2852654160367552   T   T   T
  0.9999999990000035  0.3230123049542489  0.2574552829001100   T   T   T
  0.0000000020000002  0.2612514629649645  0.2852654160367552   T   T   T
  0.6690762637514108  0.0630359231332365  0.2904657811888847   T   T   T
  0.8939596453818249  0.3309237382485894  0.2904657811888847   T   T   T
  0.4369640888667645  0.1060403676181730  0.2904657811888847   T   T   T
  0.6059453096803937  0.1691214441186183  0.2088877545766926   T   T   T
  0.5631760634382216  0.3940546523196100  0.2088877545766926   T   T   T
  0.4368239295617733  0.3308785848813806  0.2088877545766926   T   T   T
  0.6691214321186180  0.1059453576803907  0.2088877545766926   T   T   T
  0.8940546363196089  0.0631760864382275  0.2088877545766926   T   T   T
  0.5630359051332354  0.1690762907514092  0.2904657811888847   T   T   T
  0.8309236772485949  0.3939596423818278  0.2904657811888847   T   T   T
  0.6764358829021986  0.0000000000000000  0.1760237197160640   T   T   T
  0.7386377314664754  0.0000000000000000  0.2036700456634840   T   T   T
  0.8235640670978044  0.3235640820978020  0.1760237197160640   T   T   T
  0.7613622865335261  0.2613623045335198  0.2036700456634840   T   T   T
  0.4999999970000033  0.1764359089021937  0.1760237197160640   T   T   T
  0.5000000029999967  0.2386377054664738  0.2036700456634840   T   T   T
  0.8230123069542489  0.0000000000000000  0.2574552829001100   T   T   T
  0.7612514599649675  0.0000000000000000  0.2852654160367552   T   T   T
  0.6769876570457481  0.1769876860457470  0.2574552829001100   T   T   T
  0.7387485760350355  0.2387485470350291  0.2852654160367552   T   T   T
  0.5000000149999977  0.3230123049542489  0.2574552829001100   T   T   T
  0.5000000180000015  0.2612514629649645  0.2852654160367552   T   T   T
  0.1690762937514059  0.5630359511332321  0.2904657811888847   T   T   T
  0.3939596663818299  0.8309237472485936  0.2904657811888847   T   T   T
  0.3308785618813823  0.4368239045617748  0.2088877545766926   T   T   T
  0.1059453726803884  0.6691214721186142  0.2088877545766926   T   T   T
  0.0631761024382288  0.8940546993196106  0.2088877545766926   T   T   T
  0.1691214531186155  0.6059453666803878  0.2088877545766926   T   T   T
  0.3940546673196077  0.5631761144382222  0.2088877545766926   T   T   T
  0.0630359361332340  0.6690763187514047  0.2904657811888847   T   T   T
  0.3309237492485939  0.8939596893818286  0.2904657811888847   T   T   T
  0.1060403526181753  0.4369640678667663  0.2904657811888847   T   T   T
  0.1764359039021969  0.5000000100000008  0.1760237197160640   T   T   T
  0.2386377034664736  0.5000000100000008  0.2036700456634840   T   T   T
  0.3235641070978076  0.8235641290978024  0.1760237197160640   T   T   T
  0.2613623075335236  0.7613623135335248  0.2036700456634840   T   T   T
  0.0000000269999987  0.6764359379021925  0.1760237197160640   T   T   T
  0.0000000109999974  0.7386377524664736  0.2036700456634840   T   T   T
  0.3230123119542531  0.5000000100000008  0.2574552829001100   T   T   T
  0.2612514649649647  0.5000000100000008  0.2852654160367552   T   T   T
  0.1769877040457485  0.6769877150457458  0.2574552829001100   T   T   T
  0.2387485510350294  0.7387485940350299  0.2852654160367552   T   T   T
  0.0000000220000018  0.8230123519542490  0.2574552829001100   T   T   T
  0.0000000060000005  0.7612514719649685  0.2852654160367552   T   T   T
  0.6690762937514062  0.5630359511332321  0.2904657811888847   T   T   T
  0.8939596663818302  0.8309237472485936  0.2904657811888847   T   T   T
  0.4369641098667627  0.6060403766181698  0.2904657811888847   T   T   T
  0.8308785298813789  0.4368239045617748  0.2088877545766926   T   T   T
  0.6059453406803927  0.6691214721186142  0.2088877545766926   T   T   T
  0.5631761024382284  0.8940546993196106  0.2088877545766926   T   T   T
  0.4368239505617715  0.8308785938813842  0.2088877545766926   T   T   T
  0.6691214531186161  0.6059453666803878  0.2088877545766926   T   T   T
  0.8940546993196106  0.5631761144382222  0.2088877545766926   T   T   T
  0.5630359361332344  0.6690763187514047  0.2904657811888847   T   T   T
  0.8309237172485912  0.8939596893818286  0.2904657811888847   T   T   T
  0.6060403196181757  0.4369640678667663  0.2904657811888847   T   T   T
  0.6764358719021941  0.5000000100000008  0.1760237197160640   T   T   T
  0.7386377194664744  0.5000000100000008  0.2036700456634840   T   T   T
  0.8235641070978077  0.8235641290978024  0.1760237197160640   T   T   T
  0.7613623075335243  0.7613623135335248  0.2036700456634840   T   T   T
  0.5000000269999987  0.6764359379021925  0.1760237197160640   T   T   T
  0.5000000109999974  0.7386377524664736  0.2036700456634840   T   T   T
  0.8230122959542515  0.5000000100000008  0.2574552829001100   T   T   T
  0.7612514479649665  0.5000000100000008  0.2852654160367552   T   T   T
  0.6769876870457506  0.6769877150457458  0.2574552829001100   T   T   T
  0.7387485830350325  0.7387485940350299  0.2852654160367552   T   T   T
  0.5000000220000018  0.8230123519542490  0.2574552829001100   T   T   T
  0.5000000060000005  0.7612514719649685  0.2852654160367552   T   T   T
  0.9369640558667649  0.1060403676181729  0.2904657811888847   T   T   T
  0.9368238965617751  0.3308785848813806  0.2088877545766926   T   T   T
  0.9369641098667623  0.6060403766181698  0.2904657811888847   T   T   T
  0.9368239175617733  0.8308785938813842  0.2088877545766926   T   T   T
  0.3308785828813804  0.9368239145617766  0.2088877545766926   T   T   T
  0.1060403736181735  0.9369640778667667  0.2904657811888847   T   T   T
  0.8308785508813842  0.9368239145617766  0.2088877545766926   T   T   T
  0.6060403406181739  0.9369640778667667  0.2904657811888847   T   T   T
  0.1707148343682482  0.0000000000000000  0.1956763340550997   T   T   T
  0.1726077288678786  0.0000000000000000  0.2963902343729194   T   T   T
  0.3292851596317512  0.3292851536317507  0.1956763340550997   T   T   T
  0.3273922581321240  0.3273922621321244  0.2963902343729194   T   T   T
  0.0000000009999965  0.1707148373682520  0.1956763340550997   T   T   T
 -0.0000000000000000  0.1726077288678786  0.2963902343729194   T   T   T
  0.3288701090010421  0.0000000000000000  0.2771455199499109   T   T   T
  0.3270992777567559  0.0000000000000000  0.2145863257745153   T   T   T
  0.1711298919989614  0.1711298939989616  0.2771455199499108   T   T   T
  0.1729007052432461  0.1729007052432461  0.2145863257745153   T   T   T
  0.9999999939999995  0.3288700970010411  0.2771455199499109   T   T   T
  0.0000000040000003  0.3270992857567566  0.2145863257745153   T   T   T
  0.6707148343682490  0.0000000000000000  0.1956763340550997   T   T   T
  0.6726077778678786  0.0000000000000000  0.2963902343729194   T   T   T
  0.8292851276317479  0.3292851536317507  0.1956763340550997   T   T   T
  0.8273922421321230  0.3273922621321244  0.2963902343729194   T   T   T
  0.5000000169999979  0.1707148373682520  0.1956763340550997   T   T   T
  0.4999999919999993  0.1726077288678786  0.2963902343729194   T   T   T
  0.8288700760010420  0.0000000000000000  0.2771455199499109   T   T   T
  0.8270992777567572  0.0000000000000000  0.2145863257745153   T   T   T
  0.6711298759989611  0.1711298939989616  0.2771455199499109   T   T   T
  0.6729007462432449  0.1729007052432461  0.2145863257745153   T   T   T
  0.4999999939999995  0.3288700970010411  0.2771455199499109   T   T   T
  0.5000000200000017  0.3270992857567566  0.2145863257745153   T   T   T
  0.1707148393682522  0.5000000100000008  0.1956763340550997   T   T   T
  0.1726077338678755  0.5000000100000008  0.2963902343729194   T   T   T
  0.3292851996317474  0.8292852006317504  0.1956763340550997   T   T   T
  0.3273922441321229  0.8273922341321224  0.2963902343729194   T   T   T
  0.0000000149999977  0.6707148653682480  0.1956763340550997   T   T   T
  0.9999999899999992  0.6726077568678733  0.2963902343729194   T   T   T
  0.3288701130010425  0.5000000100000008  0.2771455199499109   T   T   T
  0.3270992827567528  0.5000000100000008  0.2145863257745153   T   T   T
  0.1711299069989591  0.6711299219989578  0.2771455199499108   T   T   T
  0.1729006952432452  0.6729007332432402  0.2145863257745153   T   T   T
  0.0000000340000028  0.8288701440010405  0.2771455199499109   T   T   T
  0.9999999899999992  0.8270992577567554  0.2145863257745153   T   T   T
  0.6707148233682516  0.5000000100000008  0.1956763340550997   T   T   T
  0.6726077668678742  0.5000000100000008  0.2963902343729194   T   T   T
  0.8292851666317476  0.8292852006317504  0.1956763340550997   T   T   T
  0.8273922441321232  0.8273922341321224  0.2963902343729194   T   T   T
  0.5000000149999977  0.6707148653682480  0.1956763340550997   T   T   T
  0.4999999899999992  0.6726077568678733  0.2963902343729194   T   T   T
  0.8288700650010375  0.5000000100000008  0.2771455199499109   T   T   T
  0.8270992667567598  0.5000000100000008  0.2145863257745153   T   T   T
  0.6711299069989601  0.6711299219989578  0.2771455199499109   T   T   T
  0.6729007442432448  0.6729007332432403  0.2145863257745153   T   T   T
  0.5000000340000028  0.8288701440010405  0.2771455199499109   T   T   T
  0.4999999899999992  0.8270992577567554  0.2145863257745153   T   T   T
 
  0.00000000E+00  0.00000000E+00  0.00000000E+00
  0.00000000E+00  0.00000000E+00  0.00000000E+00
  0.00000000E+00  0.00000000E+00  0.00000000E+00
  0.00000000E+00  0.00000000E+00  0.00000000E+00
  0.00000000E+00  0.00000000E+00  0.00000000E+00
  0.00000000E+00  0.00000000E+00  0.00000000E+00
  0.00000000E+00  0.00000000E+00  0.00000000E+00
  0.00000000E+00  0.00000000E+00  0.00000000E+00
  0.00000000E+00  0.00000000E+00  0.00000000E+00
  0.00000000E+00  0.00000000E+00  0.00000000E+00
  0.00000000E+00  0.00000000E+00  0.00000000E+00
  0.00000000E+00  0.00000000E+00  0.00000000E+00
  0.00000000E+00  0.00000000E+00  0.00000000E+00
  0.00000000E+00  0.00000000E+00  0.00000000E+00
  0.00000000E+00  0.00000000E+00  0.00000000E+00
  0.00000000E+00  0.00000000E+00  0.00000000E+00
  0.00000000E+00  0.00000000E+00  0.00000000E+00
  0.00000000E+00  0.00000000E+00  0.00000000E+00
  0.00000000E+00  0.00000000E+00  0.00000000E+00
  0.00000000E+00  0.00000000E+00  0.00000000E+00
  0.00000000E+00  0.00000000E+00  0.00000000E+00
  0.00000000E+00  0.00000000E+00  0.00000000E+00
  0.00000000E+00  0.00000000E+00  0.00000000E+00
  0.00000000E+00  0.00000000E+00  0.00000000E+00
  0.00000000E+00  0.00000000E+00  0.00000000E+00
  0.00000000E+00  0.00000000E+00  0.00000000E+00
  0.00000000E+00  0.00000000E+00  0.00000000E+00
  0.00000000E+00  0.00000000E+00  0.00000000E+00
  0.00000000E+00  0.00000000E+00  0.00000000E+00
  0.00000000E+00  0.00000000E+00  0.00000000E+00
  0.00000000E+00  0.00000000E+00  0.00000000E+00
  0.00000000E+00  0.00000000E+00  0.00000000E+00
  0.00000000E+00  0.00000000E+00  0.00000000E+00
  0.00000000E+00  0.00000000E+00  0.00000000E+00
  0.00000000E+00  0.00000000E+00  0.00000000E+00
  0.00000000E+00  0.00000000E+00  0.00000000E+00
  0.00000000E+00  0.00000000E+00  0.00000000E+00
  0.00000000E+00  0.00000000E+00  0.00000000E+00
  0.00000000E+00  0.00000000E+00  0.00000000E+00
  0.00000000E+00  0.00000000E+00  0.00000000E+00
  0.00000000E+00  0.00000000E+00  0.00000000E+00
  0.00000000E+00  0.00000000E+00  0.00000000E+00
  0.00000000E+00  0.00000000E+00  0.00000000E+00
  0.00000000E+00  0.00000000E+00  0.00000000E+00
  0.00000000E+00  0.00000000E+00  0.00000000E+00
  0.00000000E+00  0.00000000E+00  0.00000000E+00
  0.00000000E+00  0.00000000E+00  0.00000000E+00
  0.00000000E+00  0.00000000E+00  0.00000000E+00
  0.00000000E+00  0.00000000E+00  0.00000000E+00
  0.00000000E+00  0.00000000E+00  0.00000000E+00
  0.00000000E+00  0.00000000E+00  0.00000000E+00
  0.00000000E+00  0.00000000E+00  0.00000000E+00
  0.00000000E+00  0.00000000E+00  0.00000000E+00
  0.00000000E+00  0.00000000E+00  0.00000000E+00
  0.00000000E+00  0.00000000E+00  0.00000000E+00
  0.00000000E+00  0.00000000E+00  0.00000000E+00
  0.00000000E+00  0.00000000E+00  0.00000000E+00
  0.00000000E+00  0.00000000E+00  0.00000000E+00
  0.00000000E+00  0.00000000E+00  0.00000000E+00
  0.00000000E+00  0.00000000E+00  0.00000000E+00
  0.00000000E+00  0.00000000E+00  0.00000000E+00
  0.00000000E+00  0.00000000E+00  0.00000000E+00
  0.00000000E+00  0.00000000E+00  0.00000000E+00
  0.00000000E+00  0.00000000E+00  0.00000000E+00
  0.00000000E+00  0.00000000E+00  0.00000000E+00
  0.00000000E+00  0.00000000E+00  0.00000000E+00
  0.00000000E+00  0.00000000E+00  0.00000000E+00
  0.00000000E+00  0.00000000E+00  0.00000000E+00
  0.00000000E+00  0.00000000E+00  0.00000000E+00
  0.00000000E+00  0.00000000E+00  0.00000000E+00
  0.00000000E+00  0.00000000E+00  0.00000000E+00
  0.00000000E+00  0.00000000E+00  0.00000000E+00
  0.00000000E+00  0.00000000E+00  0.00000000E+00
  0.00000000E+00  0.00000000E+00  0.00000000E+00
  0.00000000E+00  0.00000000E+00  0.00000000E+00
  0.00000000E+00  0.00000000E+00  0.00000000E+00
  0.00000000E+00  0.00000000E+00  0.00000000E+00
  0.00000000E+00  0.00000000E+00  0.00000000E+00
  0.00000000E+00  0.00000000E+00  0.00000000E+00
  0.00000000E+00  0.00000000E+00  0.00000000E+00
  0.00000000E+00  0.00000000E+00  0.00000000E+00
  0.00000000E+00  0.00000000E+00  0.00000000E+00
  0.00000000E+00  0.00000000E+00  0.00000000E+00
  0.00000000E+00  0.00000000E+00  0.00000000E+00
  0.00000000E+00  0.00000000E+00  0.00000000E+00
  0.00000000E+00  0.00000000E+00  0.00000000E+00
  0.00000000E+00  0.00000000E+00  0.00000000E+00
  0.00000000E+00  0.00000000E+00  0.00000000E+00
  0.00000000E+00  0.00000000E+00  0.00000000E+00
  0.00000000E+00  0.00000000E+00  0.00000000E+00
  0.00000000E+00  0.00000000E+00  0.00000000E+00
  0.00000000E+00  0.00000000E+00  0.00000000E+00
  0.00000000E+00  0.00000000E+00  0.00000000E+00
  0.00000000E+00  0.00000000E+00  0.00000000E+00
  0.00000000E+00  0.00000000E+00  0.00000000E+00
  0.00000000E+00  0.00000000E+00  0.00000000E+00
  0.00000000E+00  0.00000000E+00  0.00000000E+00
  0.00000000E+00  0.00000000E+00  0.00000000E+00
  0.00000000E+00  0.00000000E+00  0.00000000E+00
  0.00000000E+00  0.00000000E+00  0.00000000E+00
  0.00000000E+00  0.00000000E+00  0.00000000E+00
  0.00000000E+00  0.00000000E+00  0.00000000E+00
  0.00000000E+00  0.00000000E+00  0.00000000E+00
  0.00000000E+00  0.00000000E+00  0.00000000E+00
  0.00000000E+00  0.00000000E+00  0.00000000E+00
  0.00000000E+00  0.00000000E+00  0.00000000E+00
  0.00000000E+00  0.00000000E+00  0.00000000E+00
  0.00000000E+00  0.00000000E+00  0.00000000E+00
  0.00000000E+00  0.00000000E+00  0.00000000E+00
  0.00000000E+00  0.00000000E+00  0.00000000E+00
  0.00000000E+00  0.00000000E+00  0.00000000E+00
  0.00000000E+00  0.00000000E+00  0.00000000E+00
  0.00000000E+00  0.00000000E+00  0.00000000E+00
  0.00000000E+00  0.00000000E+00  0.00000000E+00
  0.00000000E+00  0.00000000E+00  0.00000000E+00
  0.00000000E+00  0.00000000E+00  0.00000000E+00
  0.00000000E+00  0.00000000E+00  0.00000000E+00
  0.00000000E+00  0.00000000E+00  0.00000000E+00
  0.00000000E+00  0.00000000E+00  0.00000000E+00
  0.00000000E+00  0.00000000E+00  0.00000000E+00
  0.00000000E+00  0.00000000E+00  0.00000000E+00
  0.00000000E+00  0.00000000E+00  0.00000000E+00
  0.00000000E+00  0.00000000E+00  0.00000000E+00
  0.00000000E+00  0.00000000E+00  0.00000000E+00
  0.00000000E+00  0.00000000E+00  0.00000000E+00
  0.00000000E+00  0.00000000E+00  0.00000000E+00
  0.00000000E+00  0.00000000E+00  0.00000000E+00
  0.00000000E+00  0.00000000E+00  0.00000000E+00
  0.00000000E+00  0.00000000E+00  0.00000000E+00
  0.00000000E+00  0.00000000E+00  0.00000000E+00
  0.00000000E+00  0.00000000E+00  0.00000000E+00
  0.00000000E+00  0.00000000E+00  0.00000000E+00
  0.00000000E+00  0.00000000E+00  0.00000000E+00
  0.00000000E+00  0.00000000E+00  0.00000000E+00
  0.00000000E+00  0.00000000E+00  0.00000000E+00
  0.00000000E+00  0.00000000E+00  0.00000000E+00
  0.00000000E+00  0.00000000E+00  0.00000000E+00
  0.00000000E+00  0.00000000E+00  0.00000000E+00
  0.00000000E+00  0.00000000E+00  0.00000000E+00
  0.00000000E+00  0.00000000E+00  0.00000000E+00
  0.00000000E+00  0.00000000E+00  0.00000000E+00
  0.00000000E+00  0.00000000E+00  0.00000000E+00
  0.00000000E+00  0.00000000E+00  0.00000000E+00
  0.00000000E+00  0.00000000E+00  0.00000000E+00
