bilayer_2
1.0
       14.6976995468         0.0000000000         0.0000000000
       -7.3488497734        12.7285811847         0.0000000000
        0.0000000000         0.0000000000        49.2004013062
   H    O
  96   48
Selective dynamics
Direct
     0.168139993         0.061230000         0.285070001 T T T
     0.393090009         0.331860025         0.285070001 T T T
     0.106910005         0.168140004         0.212479987 T T T
     0.061230001         0.393090006         0.212479987 T T T
     0.168139992         0.106910004         0.212479987 T T T
     0.393089990         0.061230000         0.212479987 T T T
     0.061230007         0.168140004         0.285070001 T T T
     0.331860013         0.393090006         0.285070001 T T T
     0.165409993        -0.000000000         0.180899998 T T T
     0.226169999        -0.000000000         0.207859996 T T T
     0.334589989         0.334589988         0.180899998 T T T
     0.273830002         0.273830004         0.207859996 T T T
     0.000000005         0.165410003         0.180899998 T T T
     0.000000003         0.226170006         0.207859996 T T T
     0.334589990        -0.000000000         0.253479991 T T T
     0.273830001         0.000000000         0.280459993 T T T
     0.165409998         0.165410003         0.253479991 T T T
     0.226170003         0.226170006         0.280459993 T T T
    -0.000000001         0.334589988         0.253479991 T T T
     0.000000002         0.273830004         0.280459993 T T T
     0.668139977         0.061230000         0.285070001 T T T
     0.893090009         0.331860025         0.285070001 T T T
     0.438770012         0.106910004         0.285070001 T T T
     0.606909956         0.168140004         0.212479987 T T T
     0.561229977         0.393090006         0.212479987 T T T
     0.438770016         0.331860025         0.212479987 T T T
     0.668139992         0.106910004         0.212479987 T T T
     0.893089990         0.061230000         0.212479987 T T T
     0.561229982         0.168140004         0.285070001 T T T
     0.831859964         0.393090006         0.285070001 T T T
     0.665409977        -0.000000000         0.180899998 T T T
     0.726170032        -0.000000000         0.207859996 T T T
     0.834589973         0.334589988         0.180899998 T T T
     0.773829986         0.273830004         0.207859996 T T T
     0.499999997         0.165410003         0.180899998 T T T
     0.500000003         0.226170006         0.207859996 T T T
     0.834589990        -0.000000000         0.253479991 T T T
     0.773830001         0.000000000         0.280459993 T T T
     0.665409974         0.165410003         0.253479991 T T T
     0.726170035         0.226170006         0.280459993 T T T
     0.500000015         0.334589988         0.253479991 T T T
     0.500000018         0.273830004         0.280459993 T T T
     0.168140007         0.561230028         0.285070001 T T T
     0.393090030         0.831860034         0.285070001 T T T
     0.331860002         0.438769991         0.212479987 T T T
     0.106910019         0.668140032         0.212479987 T T T
     0.061230016         0.893090053         0.212479987 T T T
     0.168140013         0.606910013         0.212479987 T T T
     0.393090021         0.561230028         0.212479987 T T T
     0.061230013         0.668140032         0.285070001 T T T
     0.331860036         0.893090053         0.285070001 T T T
     0.106909989         0.438769991         0.285070001 T T T
     0.165409998         0.500000010         0.180899998 T T T
     0.226170004         0.500000010         0.207859996 T T T
     0.334590013         0.834590035         0.180899998 T T T
     0.273830007         0.773830013         0.207859996 T T T
     0.000000027         0.665410032         0.180899998 T T T
     0.000000011         0.726170053         0.207859996 T T T
     0.334589995         0.500000010         0.253479991 T T T
     0.273830006         0.500000010         0.280459993 T T T
     0.165410021         0.665410032         0.253479991 T T T
     0.226170010         0.726170053         0.280459993 T T T
     0.000000022         0.834590035         0.253479991 T T T
     0.000000006         0.773830013         0.280459993 T T T
     0.668140007         0.561230028         0.285070001 T T T
     0.893090030         0.831860034         0.285070001 T T T
     0.438770033         0.606910013         0.285070001 T T T
     0.831859970         0.438769991         0.212479987 T T T
     0.606909987         0.668140032         0.212479987 T T T
     0.561230016         0.893090053         0.212479987 T T T
     0.438770037         0.831860034         0.212479987 T T T
     0.668140013         0.606910013         0.212479987 T T T
     0.893090053         0.561230028         0.212479987 T T T
     0.561230013         0.668140032         0.285070001 T T T
     0.831860004         0.893090053         0.285070001 T T T
     0.606909956         0.438769991         0.285070001 T T T
     0.665409966         0.500000010         0.180899998 T T T
     0.726170020         0.500000010         0.207859996 T T T
     0.834590013         0.834590035         0.180899998 T T T
     0.773830007         0.773830013         0.207859996 T T T
     0.500000027         0.665410032         0.180899998 T T T
     0.500000011         0.726170053         0.207859996 T T T
     0.834589979         0.500000010         0.253479991 T T T
     0.773829989         0.500000010         0.280459993 T T T
     0.665410004         0.665410032         0.253479991 T T T
     0.726170042         0.726170053         0.280459993 T T T
     0.500000022         0.834590035         0.253479991 T T T
     0.500000006         0.773830013         0.280459993 T T T
     0.938769979         0.106910004         0.285070001 T T T
     0.938769983         0.331860025         0.212479987 T T T
     0.938770033         0.606910013         0.285070001 T T T
     0.938770004         0.831860034         0.212479987 T T T
     0.331860023         0.938770001         0.212479987 T T T
     0.106910010         0.938770001         0.285070001 T T T
     0.831859991         0.938770001         0.212479987 T T T
     0.606909977         0.938770001         0.285070001 T T T
     0.163320000         0.000000000         0.201339998 T T T
     0.169699993         0.000000000         0.292220000 T T T
     0.336679994         0.336679988         0.201339998 T T T
     0.330299994         0.330299998         0.292220000 T T T
     0.000000001         0.163320003         0.201339998 T T T
    -0.000000000         0.169699993         0.292220000 T T T
     0.336680000         0.000000000         0.273919992 T T T
     0.330299990        -0.000000000         0.219640006 T T T
     0.163320001         0.163320003         0.273919992 T T T
     0.169699993         0.169699993         0.219640006 T T T
    -0.000000006         0.336679988         0.273919992 T T T
     0.000000004         0.330299998         0.219640006 T T T
     0.663320000         0.000000000         0.201339998 T T T
     0.669700042         0.000000000         0.292220000 T T T
     0.836679962         0.336679988         0.201339998 T T T
     0.830299978         0.330299998         0.292220000 T T T
     0.500000017         0.163320003         0.201339998 T T T
     0.499999992         0.169699993         0.292220000 T T T
     0.836679967         0.000000000         0.273919992 T T T
     0.830299990        -0.000000000         0.219640006 T T T
     0.663319985         0.163320003         0.273919992 T T T
     0.669700034         0.169699993         0.219640006 T T T
     0.499999994         0.336679988         0.273919992 T T T
     0.500000020         0.330299998         0.219640006 T T T
     0.163320005         0.500000010         0.201339998 T T T
     0.169699998         0.500000010         0.292220000 T T T
     0.336680034         0.836680035         0.201339998 T T T
     0.330299980         0.830299970         0.292220000 T T T
     0.000000015         0.663320031         0.201339998 T T T
    -0.000000010         0.669700021         0.292220000 T T T
     0.336680004         0.500000010         0.273919992 T T T
     0.330299995         0.500000010         0.219640006 T T T
     0.163320016         0.663320031         0.273919992 T T T
     0.169699983         0.669700021         0.219640006 T T T
     0.000000034         0.836680035         0.273919992 T T T
    -0.000000010         0.830299970         0.219640006 T T T
     0.663319989         0.500000010         0.201339998 T T T
     0.669700031         0.500000010         0.292220000 T T T
     0.836680001         0.836680035         0.201339998 T T T
     0.830299980         0.830299970         0.292220000 T T T
     0.500000015         0.663320031         0.201339998 T T T
     0.499999990         0.669700021         0.292220000 T T T
     0.836679956         0.500000010         0.273919992 T T T
     0.830299979         0.500000010         0.219640006 T T T
     0.663320016         0.663320031         0.273919992 T T T
     0.669700032         0.669700021         0.219640006 T T T
     0.500000034         0.836680035         0.273919992 T T T
     0.499999990         0.830299970         0.219640006 T T T
