au_111_4_layers_5x5_with_h2o_6_bilayers_
   1.00000000000000     
    14.6976995467999991    0.0000000000000000    0.0000000000000000
    -7.3488497733999996   12.7285811846999994    0.0000000000000000
     0.0000000000000000    0.0000000000000000   49.2004013061999999
   Au   H    O 
   100   144    72
Selective dynamics
Direct
  0.0000000000000000  0.0000000000000000  0.0000000000000000   F   F   F
  0.2680472879648660  0.1343133675347642  0.0470680284514860   T   T   T
  0.1319790480953665  0.2670048627917236  0.0941569612202435   T   T   T
  0.0000653913520666 -0.0002789106441502  0.1404888481589784   T   T   T
  0.9999999999764526  0.2000000029901230  0.0000000000000000   F   F   F
  0.2656708449001133  0.3340221913357814  0.0475789472399109   T   T   T
  0.1337014004014647  0.0659711214142715  0.0937054966918844   T   T   T
 -0.0005776463099834  0.1997563432062087  0.1421799395150129   T   T   T
  0.2000000030136633  0.2000000029901230  0.0000000000000000   F   F   F
  0.0662357677833022  0.3336459336631327  0.0470612169005206   T   T   T
  0.3324068352807114  0.0661456345701706  0.0944575824038381   T   T   T
  0.1981619556638079  0.1984865488246429  0.1402301542867606   T   T   T
  0.2000000029691691  0.0000000000000000  0.0000000000000000   F   F   F
  0.0676993185810283  0.1333848718072292  0.0471407090850341   T   T   T
  0.3336423914962864  0.2667625958086139  0.0939578960146578   T   T   T
  0.2005836528531890  0.0004301532926317  0.1421761918124541   T   T   T
  0.4000000059383453  0.0000000000000000  0.0000000000000000   F   F   F
  0.6666958266462929  0.1341076868994867  0.0471698880657445   T   T   T
  0.5341775696349812  0.2680487200226532  0.0944155701470315   T   T   T
  0.4000744639780652 -0.0000671732964207  0.1411237440018156   T   T   T
  0.4000000059828395  0.2000000029901230  0.0000000000000000   F   F   F
  0.6666659471436580  0.3333058815329419  0.0471471434440642   T   T   T
  0.5348096852067326  0.0656135401264912  0.0948328374343767   T   T   T
  0.3996626794702877  0.2000665310724167  0.1410971862386231   T   T   T
  0.6000000238523029  0.2000000029901230  0.0000000000000000   F   F   F
  0.4674587520707736  0.3332586542606767  0.0471696617924307   T   T   T
  0.7331638183702729  0.0667379720037100  0.0939688639434989   T   T   T
  0.5990391034080981  0.1996966184067004  0.1418068546239603   T   T   T
  0.6000000238758432  0.0000000000000000  0.0000000000000000   F   F   F
  0.4667671452867924  0.1326525324679175  0.0480293386596183   T   T   T
  0.7318628140548936  0.2659603878060797  0.0944193464884801   T   T   T
  0.6011867762261637 -0.0001530608987944  0.1425180712665935   T   T   T
  0.8000000119447250  0.0000000000000000  0.0000000000000000   F   F   F
  0.9337593339393168  0.2660250577876801  0.0944580858997531   T   T   T
  0.8014539207913629 -0.0005089256071915  0.1402594797974426   T   T   T
  0.7999999523200216  0.2000000029901230  0.0000000000000000   F   F   F
  0.9339201038768056  0.0674766993569798  0.0937261563684104   T   T   T
  0.7997812033175070  0.1993755437533884  0.1411105329442342   T   T   T
  0.8673260373111129  0.3340183057314811  0.0480324138270096   T   T   T
  0.8656465760036424  0.1336473770609808  0.0470723115551914   T   T   T
  0.0000000000209468  0.4000000059802389  0.0000000000000000   F   F   F
  0.2684183636952811  0.5340903147489500  0.0475114527280409   T   T   T
  0.1331554467264549  0.6657859758807307  0.0948856503877512   T   T   T
 -0.0001974450813910  0.3997352282932719  0.1411048528388020   T   T   T
  0.0000000000055138  0.6000000238188363  0.0000000000000000   F   F   F
  0.2656450174942760  0.7315309597371484  0.0475205493905103   T   T   T
  0.1329601465818745  0.4667959445200045  0.0937395915072500   T   T   T
 -0.0000617637103983  0.6009332823569570  0.1425282553341456   T   T   T
  0.2000000178749772  0.6000000238188363  0.0000000000000000   F   F   F
  0.0683467336046925  0.7342758192768420  0.0475941486188670   T   T   T
  0.3340507069418230  0.4672605232977057  0.0948545806528614   T   T   T
  0.1994719006301418  0.5983584469467711  0.1418462590026982   T   T   T
  0.2000000029901230  0.4000000059802389  0.0000000000000000   F   F   F
  0.0657047487411118  0.5336515770769802  0.0472371534030905   T   T   T
  0.3332459815926250  0.6665844174480483  0.0949927304729668   T   T   T
  0.1993376091092362  0.3992020909720300  0.1410806692609710   T   T   T
  0.4000000059592921  0.4000000059802389  0.0000000000000000   F   F   F
  0.6659153769532214  0.5332180030785904  0.0480321224112505   T   T   T
  0.5331553280804854  0.6661210619614655  0.0937451055504639   T   T   T
  0.3987759475629666  0.3987172524579262  0.1424903954180786   T   T   T
  0.4000000357444407  0.6000000238188363  0.0000000000000000   F   F   F
  0.6663008000744617  0.7325395222162926  0.0470652940695556   T   T   T
  0.5308600078810979  0.4651145951133328  0.0948274441266818   T   T   T
  0.4014336183725546  0.6008555854343786  0.1417974126478155   T   T   T
  0.6000000238133225  0.6000000238188363  0.0000000000000000   F   F   F
  0.4657992728528716  0.7342578790165857  0.0475195397226360   T   T   T
  0.7338788446823826  0.4657189134046253  0.0944189088838525   T   T   T
  0.6000026434950452  0.5997664540726101  0.1411212537155816   T   T   T
  0.6000000238287555  0.4000000059802389  0.0000000000000000   F   F   F
  0.4663221510689453  0.5320298342830446  0.0472377743558040   T   T   T
  0.7337997527094320  0.6675668175631518  0.0944642577762375   T   T   T
  0.6006832404770304  0.4007021266392171  0.1418114530285071   T   T   T
  0.8000000118976374  0.4000000059802389  0.0000000000000000   F   F   F
  0.9330967790598210  0.6662308107120911  0.0939788269377377   T   T   T
  0.7999922910958905  0.3990851615167873  0.1418203972674123   T   T   T
  0.8000000118822044  0.6000000238188363  0.0000000000000000   F   F   F
  0.9342196193623669  0.4689923158476657  0.0948367138921867   T   T   T
  0.8004044830948029  0.6001195914217691  0.1411108021063316   T   T   T
  0.8662651765634330  0.7318764041485368  0.0470734394605833   T   T   T
  0.8657997859458800  0.5324847593431303  0.0471760246149790   T   T   T
  0.0000000000419007  0.8000000119604849  0.0000000000000000   F   F   F
  0.2674161723856741  0.9337333877527541  0.0470599034479901   T   T   T
  0.0004193344239122  0.8016093785399707  0.1402650840322058   T   T   T
  0.1350348544761087  0.8678876014193881  0.0941699535094957   T   T   T
  0.3338160648516067  0.8669505233152864  0.0937435868915920   T   T   T
  0.2000000030110698  0.8000000119604849  0.0000000000000000   F   F   F
  0.0657002981812300  0.9322067018910329  0.0471349903994306   T   T   T
  0.1999367642063699  0.8003832941559266  0.1411017907621436   T   T   T
  0.4000000059802389  0.8000000119604849  0.0000000000000000   F   F   F
  0.6659243116976653  0.9315636778706412  0.0475802759416655   T   T   T
  0.3990708847283349  0.8003660818006934  0.1417989719710028   T   T   T
  0.5326933275676957  0.8667304554576829  0.0948663680687244   T   T   T
  0.7329568708403034  0.8649221136657754  0.0941676181833699   T   T   T
  0.6000000238497023  0.8000000119604849  0.0000000000000000   F   F   F
  0.4679134551760390  0.9342379480548526  0.0472388193184416   T   T   T
  0.6007149052911789  0.7999384448200445  0.1410974182309098   T   T   T
  0.8000000119185842  0.8000000119604849  0.0000000000000000   F   F   F
  0.8000590500596780  0.7993387937512815  0.1421909875595793   T   T   T
  0.9323689047434597  0.8661488168303392  0.0937222688283799   T   T   T
  0.8665379555262573  0.9342240673829896  0.0471438406957090   T   T   T
  0.1669255005418530  0.0627043149637013  0.3509606369332689   T   T   T
  0.1716428791143073  0.0641565645070798  0.1984647474732240   T   T   T
  0.3947716489968355  0.3319299826003265  0.3545808346053007   T   T   T
  0.4009999232446393  0.3369727751798220  0.2021900091864128   T   T   T
  0.1044446359794196  0.1675814323107075  0.2734465615074309   T   T   T
  0.0626401185614133  0.3980260733288974  0.2771973227034234   T   T   T
  0.1675583991465919  0.1045125385342228  0.2734500979215288   T   T   T
  0.3979970313447833  0.0626784706815074  0.2772913207247975   T   T   T
  0.0626653435951433  0.1669203101596587  0.3509473721382588   T   T   T
  0.0638712756764355  0.1716036736953005  0.1984363984230305   T   T   T
  0.3318912010988680  0.3948665336494162  0.3545835973572625   T   T   T
  0.3370672614002415  0.4008464708787866  0.2020635283061445   T   T   T
  0.1696095735690461 -0.0000365362677479  0.3066626524924559   T   T   T
  0.2346810347997269 -0.0000052030976673  0.2800612429888436   T   T   T
  0.3220136362946473  0.3222481528890326  0.3104923144043313   T   T   T
  0.2636722846444776  0.2637858550543756  0.2819403685181728   T   T   T
 -0.0001178069627348  0.1696696827591870  0.3066458161105139   T   T   T
 -0.0000966992009941  0.2346903157108373  0.2800324417122952   T   T   T
  0.3133455648108085 -0.0005683048123643  0.3871133201882344   T   T   T
  0.3375124948717267  0.0000621194685930  0.2328483752861426   T   T   T
  0.2613417911461914 -0.0001295094702453  0.3582359088764053   T   T   T
  0.2753682719419902  0.0001821467562826  0.2057290250819440   T   T   T
  0.1665462739172713  0.1666032780623781  0.3850927315118690   T   T   T
  0.1736081930937794  0.1737313243013246  0.2298140036964569   T   T   T
  0.2341148597695430  0.2341695822334101  0.3590698945799864   T   T   T
  0.2372877729579598  0.2372993205069572  0.2029734294009808   T   T   T
  0.0001921934390873  0.3137645363050970  0.3870996343781541   T   T   T
 -0.0001112557361097  0.3375526633455113  0.2327749691468965   T   T   T
  0.0000041697379487  0.2614434828584628  0.3582228454227604   T   T   T
 -0.0001198398970108  0.2753182269353133  0.2056718816992497   T   T   T
  0.6688004858123968  0.0632485922109483  0.3545130355395154   T   T   T
  0.6627404499785519  0.0635605812936411  0.2021974158970750   T   T   T
  0.8962258624611793  0.3317500831647203  0.3556700230565595   T   T   T
  0.8932425306076982  0.3413122867496193  0.2008576965017680   T   T   T
  0.4353089606434016  0.1037304744066991  0.3557047801746100   T   T   T
  0.4480523588891586  0.1064422962006199  0.2008709836722102   T   T   T
  0.6048788472155912  0.1663961797433665  0.2795643531792668   T   T   T
  0.5616111152880369  0.3948556875667074  0.2795524218030585   T   T   T
  0.4347621060709477  0.3303407463859372  0.2792785862398325   T   T   T
  0.6695628492510495  0.1041797559891745  0.2793173332329123   T   T   T
  0.8956681431916763  0.0631504999576733  0.2733798210879875   T   T   T
  0.5616561952448433  0.1657610349084296  0.3557294449661808   T   T   T
  0.5737438527745391  0.1711926949136219  0.2043800872583601   T   T   T
  0.8344887018853837  0.3963362806541125  0.3557390532611264   T   T   T
  0.8281785706887205  0.4019431148009318  0.2043818137350067   T   T   T
  0.6782918197230630 -0.0001627421074275  0.3104764830785603   T   T   T
  0.7364690795392381 -0.0001008887242022  0.2818783081407391   T   T   T
  0.8324220255165879  0.3311974020535763  0.3117704881300288   T   T   T
  0.7677791792545052  0.2675788992790629  0.2848249212673623   T   T   T
  0.4984445834908088  0.1673730186741984  0.3117974566695174   T   T   T
  0.4996381605142700  0.2319541803834075  0.2848214259437569   T   T   T
  0.8337219782571894  0.0003584955519326  0.3853040853508949   T   T   T
  0.8263726633748251 -0.0000793276302798  0.2297501251003994   T   T   T
  0.7663832038466766  0.0003134209829920  0.3592068217725516   T   T   T
  0.7626088885845871 -0.0001955480259670  0.2029286554545016   T   T   T
  0.6758753026766067  0.1723852922131001  0.3879657961858724   T   T   T
  0.6772585754129008  0.1720944702529997  0.2367630787237372   T   T   T
  0.7361469005079255  0.2358248946629340  0.3608485945063908   T   T   T
  0.7376777498099942  0.2378263994847845  0.2091487098040897   T   T   T
  0.4965041095015956  0.3241401649771828  0.3880298118385294   T   T   T
  0.4950986292087414  0.3224592952244909  0.2367212399286888   T   T   T
  0.4994393071675431  0.2638841750814906  0.3608858322280893   T   T   T
  0.5004656662014572  0.2620736701876667  0.2091064033421880   T   T   T
  0.1658076029689862  0.5616673157240880  0.3555939680830345   T   T   T
  0.1709440327514256  0.5737177432172023  0.2041806456192542   T   T   T
  0.3961898997873824  0.8343990968697446  0.3556202994501498   T   T   T
  0.4018884902517340  0.8285042128614951  0.2041509450358866   T   T   T
  0.3303239584793473  0.4348585754124615  0.2790945621618857   T   T   T
  0.1042573414915467  0.6696359016128711  0.2791780460243696   T   T   T
  0.0631895205522931  0.8957395131323187  0.2733908538057445   T   T   T
  0.1664370336886920  0.6049454905420062  0.2793690081463193   T   T   T
  0.3948506930852363  0.5616623835521238  0.2793195273225639   T   T   T
  0.0632709842311368  0.6688228933821557  0.3545221731907803   T   T   T
  0.0633823448490852  0.6626977456512327  0.2021095831832551   T   T   T
  0.3315707997635525  0.8960831594018520  0.3555612056862082   T   T   T
  0.3413525462755646  0.8938019785613857  0.2008323023636119   T   T   T
  0.1038426381495496  0.4353426322264247  0.3555736241855105   T   T   T
  0.1060201397425623  0.4479402554398966  0.2007347226583708   T   T   T
  0.1676043017491095  0.4985939469945534  0.3116354642615670   T   T   T
  0.2320461047557360  0.4997402575965152  0.2846284039468238   T   T   T
  0.3311419040370865  0.8322224213303662  0.3116449730490711   T   T   T
  0.2675816001943234  0.7677429064269483  0.2846709141644141   T   T   T
  0.0002019994437929  0.6785273495265871  0.3104902788953969   T   T   T
  0.0000790518528740  0.7365849256671197  0.2818861320638457   T   T   T
  0.3241739872244592  0.4969433058253726  0.3879533939458358   T   T   T
  0.3223945721784713  0.4952049770868595  0.2364594673531361   T   T   T
  0.2639049310123978  0.4995550521756807  0.3607743503409803   T   T   T
  0.2619557487162423  0.5004340692604768  0.2088527200687309   T   T   T
  0.1726388799201779  0.6757516046440551  0.3878945272533965   T   T   T
  0.1722315769114679  0.6773693639786559  0.2365684683155646   T   T   T
  0.2357885387257671  0.7360710310870682  0.3607486378541598   T   T   T
  0.2378175597094853  0.7378973250671232  0.2089507499114654   T   T   T
  0.0003566795795059  0.8337619824477737  0.3853133932046061   T   T   T
  0.0001761661125530  0.8265048575103763  0.2297576675702325   T   T   T
  0.0003377885685440  0.7664350743302382  0.3592154433781878   T   T   T
 -0.0001292311850352  0.7626455163234684  0.2029346807569290   T   T   T
  0.6685846309881316  0.5647569583572420  0.3556767065653090   T   T   T
  0.6584283085685735  0.5521847721106070  0.2010014151515120   T   T   T
  0.8961958858605004  0.8336810467987986  0.3510998795627149   T   T   T
  0.8925369471123081  0.8284078390165576  0.1984580183622331   T   T   T
  0.4383280008213405  0.6043811883502588  0.3556734158182652   T   T   T
  0.4264975710524229  0.5974103904670184  0.2041358852847976   T   T   T
  0.8332807553872567  0.4384662406361370  0.2795287882179687   T   T   T
  0.6019493207902407  0.6647906013786972  0.2773646124847492   T   T   T
  0.5652879309393166  0.8954944314037001  0.2791041275264629   T   T   T
  0.4384455531772006  0.8332765038043306  0.2793059856735328   T   T   T
  0.6647679616506099  0.6019408613391015  0.2774143446135706   T   T   T
  0.8955566931464749  0.5653631964963777  0.2793001161080261   T   T   T
  0.5646705802909185  0.6687410437806786  0.3555515599720775   T   T   T
  0.5524014997201754  0.6582773088847744  0.2008923488232437   T   T   T
  0.8336977458158572  0.8962395713603809  0.3510895808285463   T   T   T
  0.8284663343766948  0.8922631791020758  0.1984141209244347   T   T   T
  0.6042730412145284  0.4383942676341454  0.3558054625017537   T   T   T
  0.5975532351048105  0.4263888793056881  0.2043850419278679   T   T   T
  0.6688670498708473  0.5012392359129811  0.3118342532717602   T   T   T
  0.7323197712281491  0.5002689092437528  0.2848464277172338   T   T   T
  0.8308421078559446  0.8308120682438641  0.3067153649401293   T   T   T
  0.7655405593326083  0.7655034604072904  0.2801716908631687   T   T   T
  0.5010538454209964  0.6690075949220073  0.3116783828661343   T   T   T
  0.5001961981152253  0.7323839199202825  0.2846539701416123   T   T   T
  0.8283276016910266  0.5041100109892668  0.3880090843573000   T   T   T
  0.8272727891436431  0.5047714409173705  0.2367252662400043   T   T   T
  0.7648331847391175  0.5009400149813522  0.3609019482652301   T   T   T
  0.7614538303108336  0.4994582783562871  0.2091256243681761   T   T   T
  0.6862810495877730  0.6867525833830065  0.3870439799315010   T   T   T
  0.6627515856912570  0.6627270179286584  0.2330196774708644   T   T   T
  0.7388100584671545  0.7389321739560649  0.3582019151106548   T   T   T
  0.7248750460989216  0.7247610453479956  0.2058593232755881   T   T   T
  0.5036666149402277  0.8280401994834889  0.3879215601505204   T   T   T
  0.5045631186166981  0.8270796310291761  0.2364562330116928   T   T   T
  0.5007652348247671  0.7648259005144264  0.3607822772788673   T   T   T
  0.4994069267230657  0.7613804963069493  0.2088566337942961   T   T   T
  0.9375970285320637  0.1043353782555370  0.3510519655419439   T   T   T
  0.9359244618719085  0.1075428232726423  0.1984444007444384   T   T   T
  0.9370118617784200  0.3352160580632003  0.2772334427841397   T   T   T
  0.9374948879227198  0.6060303549885085  0.3545521962738692   T   T   T
  0.9356069046803447  0.5987304978198468  0.2021805169942991   T   T   T
  0.9370370238302399  0.8326614858655285  0.2733974100798678   T   T   T
  0.3351936923812107  0.9370372864241248  0.2772290917031975   T   T   T
  0.1042875062279214  0.9376349292168856  0.3510589453616491   T   T   T
  0.1077900823190408  0.9362145225509805  0.1984153755044864   T   T   T
  0.8326741206478091  0.9369937473397341  0.2734006242209446   T   T   T
  0.6059166282935244  0.9374721348975287  0.3545401957170585   T   T   T
  0.5987712375331665  0.9357739439503303  0.2020560307887136   T   T   T
  0.1684104932982468  0.0000482494912925  0.2865473539417339   T   T   T
  0.1685308504758317  0.0000432550208678  0.3434388313512536   T   T   T
  0.1760718830027946  0.0002541098345753  0.1932703539365982   T   T   T
  0.3272934345029705  0.3274687460466781  0.2904545918275691   T   T   T
  0.3307250980547859  0.3308007257865412  0.3471020429624951   T   T   T
  0.3407065120891717  0.3404603797349973  0.1934934115227249   T   T   T
 -0.0000412618937510  0.1684393284807248  0.2865311782556867   T   T   T
  0.0000169613473014  0.1685569712583611  0.3434281537894062   T   T   T
 -0.0001337942629184  0.1758631802673215  0.1932610158331771   T   T   T
  0.3244743314909459 -0.0002649818837622  0.3674863957508853   T   T   T
  0.3403862985419447  0.0000944135199129  0.2127238817560178   T   T   T
  0.3349615061501018 -0.0000906785146511  0.2692923608855888   T   T   T
  0.1668577317105759  0.1668888162500758  0.3651871146139980   T   T   T
  0.1712383489863223  0.1713892072735613  0.2096624383941273   T   T   T
  0.1700520902408727  0.1701034459589714  0.2665651561695325   T   T   T
  0.0000191174477672  0.3246542870964699  0.3674726924300017   T   T   T
 -0.0000951053755161  0.3404062917798887  0.2126504302075260   T   T   T
 -0.0002103410377567  0.3349655846406255  0.2692387534801912   T   T   T
  0.6728125301210941 -0.0002544489792645  0.2904425884883501   T   T   T
  0.6700636825036209  0.0003415426448629  0.3470758405287599   T   T   T
  0.6591921141360128 -0.0002231293203100  0.1934815368297194   T   T   T
  0.8336765659856874  0.3336459586494814  0.2916682637210973   T   T   T
  0.8325566577223494  0.3318060246476178  0.3483358969216578   T   T   T
  0.8246364693675804  0.3370242320020038  0.1964419241411200   T   T   T
  0.4996714124701785  0.1660165078651330  0.2916956791514519   T   T   T
  0.4989057361464656  0.1674580440590794  0.3483462120798143   T   T   T
  0.5124934849182869  0.1748923048648673  0.1964142791765335   T   T   T
  0.8335839833679249  0.0003185651168019  0.3653983049215956   T   T   T
  0.8286549114120428 -0.0000957551683556  0.2095965555392890   T   T   T
  0.8301516016291068  0.0000250264635747  0.2664734913220163   T   T   T
  0.6704440282841082  0.1695249355543340  0.3681239967243271   T   T   T
  0.6752572144647281  0.1691706108811599  0.2166521837527894   T   T   T
  0.6709191702377514  0.1695941909550874  0.2727360493716994   T   T   T
  0.4991125144430579  0.3296869886767729  0.3681909144128666   T   T   T
  0.4942324439258540  0.3244856067441942  0.2166101730212871   T   T   T
  0.4987641362462422  0.3288710999224581  0.2726993013870457   T   T   T
  0.1661769503477667  0.4998110696305504  0.2915342577842030   T   T   T
  0.1675275779457176  0.4989436808099129  0.3481982609942835   T   T   T
  0.1744320030151428  0.5123504791585887  0.1962021388266766   T   T   T
  0.3336422376407249  0.8335641181325003  0.2915425120988532   T   T   T
  0.3316612399503319  0.8324554969084919  0.3482078574290618   T   T   T
  0.3370196671524645  0.8252619781430178  0.1962682521846573   T   T   T
  0.0000340268439485  0.6729903991917907  0.2904567166237896   T   T   T
  0.0003865140544169  0.6701437595103057  0.3470859262843928   T   T   T
 -0.0005900271371111  0.6590193212790254  0.1934874195176531   T   T   T
  0.3297001251701835  0.4992841106489654  0.3681143943785116   T   T   T
  0.3244068531229740  0.4943346134386576  0.2163471631210643   T   T   T
  0.3289340058622431  0.4988137484758903  0.2724413075169379   T   T   T
  0.1695464924231528  0.6703662905081886  0.3680523414955046   T   T   T
  0.1693134429925394  0.6753468328557676  0.2164563923661401   T   T   T
  0.1695751053533765  0.6709457482401354  0.2725325969101153   T   T   T
  0.0002928553636926  0.8336125564792406  0.3654076224272561   T   T   T
  0.0001830941785775  0.8287976546825776  0.2096038084778244   T   T   T
  0.0001073077364846  0.8301996639144044  0.2664759308937727   T   T   T
  0.6662615154903824  0.5000382453271465  0.2917327420020394   T   T   T
  0.6686870707221075  0.5010646458155086  0.3483807839330654   T   T   T
  0.6624629885144139  0.4878193242317071  0.1964653922285498   T   T   T
  0.8318957927116052  0.8318596496715880  0.2865993524119214   T   T   T
  0.8320214316334494  0.8320365227169115  0.3434983563240607   T   T   T
  0.8241568774176846  0.8239335377555619  0.1932911998175343   T   T   T
  0.4999272859374937  0.6663590019047290  0.2915774304713712   T   T   T
  0.5009745018025078  0.6687962450298224  0.3482392484274797   T   T   T
  0.4880789309897652  0.6622640260435244  0.1962346916516178   T   T   T
  0.8311786445173595  0.5016066543022457  0.3681656630259523   T   T   T
  0.8300232018292826  0.5054235065605739  0.2166137994443447   T   T   T
  0.8301341443879284  0.5013446698967926  0.2727074554154630   T   T   T
  0.6755134419187383  0.6757256512025328  0.3674127979102546   T   T   T
  0.6598153839128311  0.6598045242897241  0.2128955913688789   T   T   T
  0.6651265643934958  0.6650825601139485  0.2694560437961702   T   T   T
  0.5013765259371156  0.8311126367315131  0.3680785318567200   T   T   T
  0.5051611241545543  0.8298139400617086  0.2163440451180907   T   T   T
  0.5013065941321244  0.8301894469801827  0.2724458123775075   T   T   T
