bilayer_1                               
   1.00000000000000     
    14.6976995467999991    0.0000000000000000    0.0000000000000000
    -7.3488497733999996   12.7285811846999994    0.0000000000000000
     0.0000000000000000    0.0000000000000000   49.2004013061999999
   H    O 
    48    24
Selective dynamics
Direct
  0.1065690392223780  0.1694717568442783  0.2133725557423186   T   T   T
  0.0629027196219007  0.3934309717776267  0.2133725557423186   T   T   T
  0.1694717448442773  0.1065690382223743  0.2133725557423186   T   T   T
  0.3934309557776254  0.0629027186219042  0.2133725557423186   T   T   T
  0.1775904621322774 -0.0000000000000000  0.1803394300509935   T   T   T
  0.2394291642769608 -0.0000000000000000  0.2081388664569360   T   T   T
  0.3224095198677210  0.3224095188677174  0.1803394300509935   T   T   T
  0.2605708367230355  0.2605708387230357  0.2081388664569360   T   T   T
  0.0000000049999969  0.1775904721322782  0.1803394300509935   T   T   T
  0.0000000029999967  0.2394291712769578  0.2081388664569360   T   T   T
  0.6065689902223774  0.1694717568442783  0.2133725557423186   T   T   T
  0.5629026956218985  0.3934309717776267  0.2133725557423186   T   T   T
  0.4370972973780970  0.3305282721557204  0.2133725557423186   T   T   T
  0.6694717448442777  0.1065690382223743  0.2133725557423186   T   T   T
  0.8934309557776252  0.0629027186219042  0.2133725557423186   T   T   T
  0.6775904461322836 -0.0000000000000000  0.1803394300509935   T   T   T
  0.7394291972769593 -0.0000000000000000  0.2081388664569360   T   T   T
  0.8224095038677194  0.3224095188677174  0.1803394300509935   T   T   T
  0.7605708207230422  0.2605708387230357  0.2081388664569360   T   T   T
  0.4999999970000033  0.1775904721322782  0.1803394300509935   T   T   T
  0.5000000029999967  0.2394291712769578  0.2081388664569360   T   T   T
  0.3305282491557221  0.4370972723780985  0.2133725557423186   T   T   T
  0.1065690532223720  0.6694717848442739  0.2133725557423186   T   T   T
  0.0629027346219055  0.8934310187776269  0.2133725557423186   T   T   T
  0.1694717658442755  0.6065690472223715  0.2133725557423186   T   T   T
  0.3934309867776244  0.5629027466218992  0.2133725557423186   T   T   T
  0.1775904671322814  0.5000000100000008  0.1803394300509935   T   T   T
  0.2394291692769577  0.5000000100000008  0.2081388664569360   T   T   T
  0.3224095438677230  0.8224095658677174  0.1803394300509935   T   T   T
  0.2605708417230395  0.7605708477230408  0.2081388664569360   T   T   T
  0.0000000269999987  0.6775905011322775  0.1803394300509935   T   T   T
  0.0000000109999974  0.7394292182769575  0.2081388664569360   T   T   T
  0.8305282171557191  0.4370972723780985  0.2133725557423186   T   T   T
  0.6065690212223764  0.6694717848442739  0.2133725557423186   T   T   T
  0.5629027346219053  0.8934310187776269  0.2133725557423186   T   T   T
  0.4370973183780952  0.8305282811557244  0.2133725557423186   T   T   T
  0.6694717658442759  0.6065690472223715  0.2133725557423186   T   T   T
  0.8934310187776269  0.5629027466218992  0.2133725557423186   T   T   T
  0.6775904351322791  0.5000000100000008  0.1803394300509935   T   T   T
  0.7394291852769583  0.5000000100000008  0.2081388664569360   T   T   T
  0.8224095438677227  0.8224095658677174  0.1803394300509935   T   T   T
  0.7605708417230403  0.7605708477230408  0.2081388664569360   T   T   T
  0.5000000269999987  0.6775905011322775  0.1803394300509935   T   T   T
  0.5000000109999974  0.7394292182769575  0.2081388664569360   T   T   T
  0.9370972643780981  0.3305282721557204  0.2133725557423186   T   T   T
  0.9370972853780963  0.8305282811557244  0.2133725557423186   T   T   T
  0.3305282701557203  0.9370972823780996  0.2133725557423186   T   T   T
  0.8305282381557244  0.9370972823780996  0.2133725557423186   T   T   T
  0.1714932376474586 -0.0000000000000000  0.1999847945601728   T   T   T
  0.3285067563525409  0.3285067503525404  0.1999847945601728   T   T   T
  0.0000000009999965  0.1714932406474624  0.1999847945601728   T   T   T
  0.3271551266476684 -0.0000000000000000  0.2194917694472687   T   T   T
  0.1728448563523336  0.1728448563523336  0.2194917694472687   T   T   T
  0.0000000040000003  0.3271551346476690  0.2194917694472687   T   T   T
  0.6714932376474588 -0.0000000000000000  0.1999847945601728   T   T   T
  0.8285067243525380  0.3285067503525404  0.1999847945601728   T   T   T
  0.5000000169999979  0.1714932406474624  0.1999847945601728   T   T   T
  0.8271551266476683 -0.0000000000000000  0.2194917694472687   T   T   T
  0.6728448973523337  0.1728448563523336  0.2194917694472687   T   T   T
  0.5000000200000017  0.3271551346476690  0.2194917694472687   T   T   T
  0.1714932426474625  0.5000000100000008  0.1999847945601728   T   T   T
  0.3285067963525371  0.8285067973525405  0.1999847945601728   T   T   T
  0.0000000149999977  0.6714932686474578  0.1999847945601728   T   T   T
  0.3271551316476652  0.5000000100000008  0.2194917694472687   T   T   T
  0.1728448463523328  0.6728448843523290  0.2194917694472687   T   T   T
  0.9999999899999992  0.8271551066476667  0.2194917694472687   T   T   T
  0.6714932266474615  0.5000000100000008  0.1999847945601728   T   T   T
  0.8285067633525377  0.8285067973525405  0.1999847945601728   T   T   T
  0.5000000149999977  0.6714932686474578  0.1999847945601728   T   T   T
  0.8271551156476710  0.5000000100000008  0.2194917694472687   T   T   T
  0.6728448953523335  0.6728448843523290  0.2194917694472687   T   T   T
  0.4999999899999992  0.8271551066476667  0.2194917694472687   T   T   T
 
  0.00000000E+00  0.00000000E+00  0.00000000E+00
  0.00000000E+00  0.00000000E+00  0.00000000E+00
  0.00000000E+00  0.00000000E+00  0.00000000E+00
  0.00000000E+00  0.00000000E+00  0.00000000E+00
  0.00000000E+00  0.00000000E+00  0.00000000E+00
  0.00000000E+00  0.00000000E+00  0.00000000E+00
  0.00000000E+00  0.00000000E+00  0.00000000E+00
  0.00000000E+00  0.00000000E+00  0.00000000E+00
  0.00000000E+00  0.00000000E+00  0.00000000E+00
  0.00000000E+00  0.00000000E+00  0.00000000E+00
  0.00000000E+00  0.00000000E+00  0.00000000E+00
  0.00000000E+00  0.00000000E+00  0.00000000E+00
  0.00000000E+00  0.00000000E+00  0.00000000E+00
  0.00000000E+00  0.00000000E+00  0.00000000E+00
  0.00000000E+00  0.00000000E+00  0.00000000E+00
  0.00000000E+00  0.00000000E+00  0.00000000E+00
  0.00000000E+00  0.00000000E+00  0.00000000E+00
  0.00000000E+00  0.00000000E+00  0.00000000E+00
  0.00000000E+00  0.00000000E+00  0.00000000E+00
  0.00000000E+00  0.00000000E+00  0.00000000E+00
  0.00000000E+00  0.00000000E+00  0.00000000E+00
  0.00000000E+00  0.00000000E+00  0.00000000E+00
  0.00000000E+00  0.00000000E+00  0.00000000E+00
  0.00000000E+00  0.00000000E+00  0.00000000E+00
  0.00000000E+00  0.00000000E+00  0.00000000E+00
  0.00000000E+00  0.00000000E+00  0.00000000E+00
  0.00000000E+00  0.00000000E+00  0.00000000E+00
  0.00000000E+00  0.00000000E+00  0.00000000E+00
  0.00000000E+00  0.00000000E+00  0.00000000E+00
  0.00000000E+00  0.00000000E+00  0.00000000E+00
  0.00000000E+00  0.00000000E+00  0.00000000E+00
  0.00000000E+00  0.00000000E+00  0.00000000E+00
  0.00000000E+00  0.00000000E+00  0.00000000E+00
  0.00000000E+00  0.00000000E+00  0.00000000E+00
  0.00000000E+00  0.00000000E+00  0.00000000E+00
  0.00000000E+00  0.00000000E+00  0.00000000E+00
  0.00000000E+00  0.00000000E+00  0.00000000E+00
  0.00000000E+00  0.00000000E+00  0.00000000E+00
  0.00000000E+00  0.00000000E+00  0.00000000E+00
  0.00000000E+00  0.00000000E+00  0.00000000E+00
  0.00000000E+00  0.00000000E+00  0.00000000E+00
  0.00000000E+00  0.00000000E+00  0.00000000E+00
  0.00000000E+00  0.00000000E+00  0.00000000E+00
  0.00000000E+00  0.00000000E+00  0.00000000E+00
  0.00000000E+00  0.00000000E+00  0.00000000E+00
  0.00000000E+00  0.00000000E+00  0.00000000E+00
  0.00000000E+00  0.00000000E+00  0.00000000E+00
  0.00000000E+00  0.00000000E+00  0.00000000E+00
  0.00000000E+00  0.00000000E+00  0.00000000E+00
  0.00000000E+00  0.00000000E+00  0.00000000E+00
  0.00000000E+00  0.00000000E+00  0.00000000E+00
  0.00000000E+00  0.00000000E+00  0.00000000E+00
  0.00000000E+00  0.00000000E+00  0.00000000E+00
  0.00000000E+00  0.00000000E+00  0.00000000E+00
  0.00000000E+00  0.00000000E+00  0.00000000E+00
  0.00000000E+00  0.00000000E+00  0.00000000E+00
  0.00000000E+00  0.00000000E+00  0.00000000E+00
  0.00000000E+00  0.00000000E+00  0.00000000E+00
  0.00000000E+00  0.00000000E+00  0.00000000E+00
  0.00000000E+00  0.00000000E+00  0.00000000E+00
  0.00000000E+00  0.00000000E+00  0.00000000E+00
  0.00000000E+00  0.00000000E+00  0.00000000E+00
  0.00000000E+00  0.00000000E+00  0.00000000E+00
  0.00000000E+00  0.00000000E+00  0.00000000E+00
  0.00000000E+00  0.00000000E+00  0.00000000E+00
  0.00000000E+00  0.00000000E+00  0.00000000E+00
  0.00000000E+00  0.00000000E+00  0.00000000E+00
  0.00000000E+00  0.00000000E+00  0.00000000E+00
  0.00000000E+00  0.00000000E+00  0.00000000E+00
  0.00000000E+00  0.00000000E+00  0.00000000E+00
  0.00000000E+00  0.00000000E+00  0.00000000E+00
  0.00000000E+00  0.00000000E+00  0.00000000E+00
