bilayer_1                               
   1.00000000000000     
    14.6976995467999991    0.0000000000000000    0.0000000000000000
    -7.3488497733999996   12.7285811846999994    0.0000000000000000
     0.0000000000000000    0.0000000000000000   49.2004013061999999
   H    O 
    48    24
Selective dynamics
Direct
  0.1064666820519805  0.1693954466401514  0.2133634848882496   T   T   T
  0.0629287665881712  0.3935333289480240  0.2133634848882496   T   T   T
  0.1693954346401504  0.1064666810519769  0.2133634848882496   T   T   T
  0.3935333129480226  0.0629287655881746  0.2133634848882496   T   T   T
  0.1772198943376177  0.0000000000000000  0.1803723801558536   T   T   T
  0.2395218928414500  0.0000000000000000  0.2081226285490722   T   T   T
  0.3227800876623805  0.3227800866623768  0.1803723801558536   T   T   T
  0.2604781081585464  0.2604781101585466  0.2081226285490722   T   T   T
  0.0000000049999969  0.1772199043376186  0.1803723801558536   T   T   T
  0.0000000029999967  0.2395218998414470  0.2081226285490722   T   T   T
  0.6064666330519800  0.1693954466401514  0.2133634848882496   T   T   T
  0.5629287425881693  0.3935333289480240  0.2133634848882496   T   T   T
  0.4370712504118267  0.3306045823598474  0.2133634848882496   T   T   T
  0.6693954346401504  0.1064666810519769  0.2133634848882496   T   T   T
  0.8935333129480226  0.0629287655881746  0.2133634848882496   T   T   T
  0.6772198783376242  0.0000000000000000  0.1803723801558536   T   T   T
  0.7395219258414490  0.0000000000000000  0.2081226285490722   T   T   T
  0.8227800716623788  0.3227800866623768  0.1803723801558536   T   T   T
  0.7604780921585524  0.2604781101585466  0.2081226285490722   T   T   T
  0.4999999970000033  0.1772199043376186  0.1803723801558536   T   T   T
  0.5000000029999967  0.2395218998414470  0.2081226285490722   T   T   T
  0.3306045593598491  0.4370712254118282  0.2133634848882496   T   T   T
  0.1064666960519745  0.6693954746401466  0.2133634848882496   T   T   T
  0.0629287815881760  0.8935333759480243  0.2133634848882496   T   T   T
  0.1693954556401486  0.6064666900519741  0.2133634848882496   T   T   T
  0.3935333439480216  0.5629287935881699  0.2133634848882496   T   T   T
  0.1772198993376217  0.5000000100000008  0.1803723801558536   T   T   T
  0.2395218978414468  0.5000000100000008  0.2081226285490722   T   T   T
  0.3227801116623825  0.8227801336623768  0.1803723801558536   T   T   T
  0.2604781131585504  0.7604781191585511  0.2081226285490722   T   T   T
  0.0000000269999987  0.6772199333376181  0.1803723801558536   T   T   T
  0.0000000109999974  0.7395219468414472  0.2081226285490722   T   T   T
  0.8306045273598465  0.4370712254118282  0.2133634848882496   T   T   T
  0.6064666640519790  0.6693954746401466  0.2133634848882496   T   T   T
  0.5629287815881761  0.8935333759480243  0.2133634848882496   T   T   T
  0.4370712714118249  0.8306045913598518  0.2133634848882496   T   T   T
  0.6693954556401486  0.6064666900519741  0.2133634848882496   T   T   T
  0.8935333759480243  0.5629287935881699  0.2133634848882496   T   T   T
  0.6772198673376197  0.5000000100000008  0.1803723801558536   T   T   T
  0.7395219138414481  0.5000000100000008  0.2081226285490722   T   T   T
  0.8227801116623821  0.8227801336623768  0.1803723801558536   T   T   T
  0.7604781131585506  0.7604781191585511  0.2081226285490722   T   T   T
  0.5000000269999987  0.6772199333376181  0.1803723801558536   T   T   T
  0.5000000109999974  0.7395219468414472  0.2081226285490722   T   T   T
  0.9370712174118274  0.3306045823598474  0.2133634848882496   T   T   T
  0.9370712384118256  0.8306045913598518  0.2133634848882496   T   T   T
  0.3306045803598472  0.9370712354118289  0.2133634848882496   T   T   T
  0.8306045483598518  0.9370712354118289  0.2133634848882496   T   T   T
  0.1714569249985800  0.0000000000000000  0.2000263787301745   T   T   T
  0.3285430690014198  0.3285430630014193  0.2000263787301745   T   T   T
  0.0000000009999965  0.1714569279985838  0.2000263787301745   T   T   T
  0.3272103414527060  0.0000000000000000  0.2194516147884091   T   T   T
  0.1727896415472961  0.1727896415472961  0.2194516147884091   T   T   T
  0.0000000040000003  0.3272103494527067  0.2194516147884091   T   T   T
  0.6714569249985805  0.0000000000000000  0.2000263787301745   T   T   T
  0.8285430370014164  0.3285430630014193  0.2000263787301745   T   T   T
  0.5000000169999979  0.1714569279985838  0.2000263787301745   T   T   T
  0.8272103414527060  0.0000000000000000  0.2194516147884091   T   T   T
  0.6727896825472960  0.1727896415472961  0.2194516147884091   T   T   T
  0.5000000200000017  0.3272103494527067  0.2194516147884091   T   T   T
  0.1714569299985839  0.5000000100000008  0.2000263787301745   T   T   T
  0.3285431090014160  0.8285431100014189  0.2000263787301745   T   T   T
  0.0000000149999977  0.6714569559985795  0.2000263787301745   T   T   T
  0.3272103464527029  0.5000000100000008  0.2194516147884091   T   T   T
  0.1727896315472953  0.6727896695472914  0.2194516147884091   T   T   T
  0.9999999899999992  0.8272103214527043  0.2194516147884091   T   T   T
  0.6714569139985831  0.5000000100000008  0.2000263787301745   T   T   T
  0.8285430760014161  0.8285431100014189  0.2000263787301745   T   T   T
  0.5000000149999977  0.6714569559985795  0.2000263787301745   T   T   T
  0.8272103304527086  0.5000000100000008  0.2194516147884091   T   T   T
  0.6727896805472958  0.6727896695472914  0.2194516147884091   T   T   T
  0.4999999899999992  0.8272103214527043  0.2194516147884091   T   T   T
 
  0.00000000E+00  0.00000000E+00  0.00000000E+00
  0.00000000E+00  0.00000000E+00  0.00000000E+00
  0.00000000E+00  0.00000000E+00  0.00000000E+00
  0.00000000E+00  0.00000000E+00  0.00000000E+00
  0.00000000E+00  0.00000000E+00  0.00000000E+00
  0.00000000E+00  0.00000000E+00  0.00000000E+00
  0.00000000E+00  0.00000000E+00  0.00000000E+00
  0.00000000E+00  0.00000000E+00  0.00000000E+00
  0.00000000E+00  0.00000000E+00  0.00000000E+00
  0.00000000E+00  0.00000000E+00  0.00000000E+00
  0.00000000E+00  0.00000000E+00  0.00000000E+00
  0.00000000E+00  0.00000000E+00  0.00000000E+00
  0.00000000E+00  0.00000000E+00  0.00000000E+00
  0.00000000E+00  0.00000000E+00  0.00000000E+00
  0.00000000E+00  0.00000000E+00  0.00000000E+00
  0.00000000E+00  0.00000000E+00  0.00000000E+00
  0.00000000E+00  0.00000000E+00  0.00000000E+00
  0.00000000E+00  0.00000000E+00  0.00000000E+00
  0.00000000E+00  0.00000000E+00  0.00000000E+00
  0.00000000E+00  0.00000000E+00  0.00000000E+00
  0.00000000E+00  0.00000000E+00  0.00000000E+00
  0.00000000E+00  0.00000000E+00  0.00000000E+00
  0.00000000E+00  0.00000000E+00  0.00000000E+00
  0.00000000E+00  0.00000000E+00  0.00000000E+00
  0.00000000E+00  0.00000000E+00  0.00000000E+00
  0.00000000E+00  0.00000000E+00  0.00000000E+00
  0.00000000E+00  0.00000000E+00  0.00000000E+00
  0.00000000E+00  0.00000000E+00  0.00000000E+00
  0.00000000E+00  0.00000000E+00  0.00000000E+00
  0.00000000E+00  0.00000000E+00  0.00000000E+00
  0.00000000E+00  0.00000000E+00  0.00000000E+00
  0.00000000E+00  0.00000000E+00  0.00000000E+00
  0.00000000E+00  0.00000000E+00  0.00000000E+00
  0.00000000E+00  0.00000000E+00  0.00000000E+00
  0.00000000E+00  0.00000000E+00  0.00000000E+00
  0.00000000E+00  0.00000000E+00  0.00000000E+00
  0.00000000E+00  0.00000000E+00  0.00000000E+00
  0.00000000E+00  0.00000000E+00  0.00000000E+00
  0.00000000E+00  0.00000000E+00  0.00000000E+00
  0.00000000E+00  0.00000000E+00  0.00000000E+00
  0.00000000E+00  0.00000000E+00  0.00000000E+00
  0.00000000E+00  0.00000000E+00  0.00000000E+00
  0.00000000E+00  0.00000000E+00  0.00000000E+00
  0.00000000E+00  0.00000000E+00  0.00000000E+00
  0.00000000E+00  0.00000000E+00  0.00000000E+00
  0.00000000E+00  0.00000000E+00  0.00000000E+00
  0.00000000E+00  0.00000000E+00  0.00000000E+00
  0.00000000E+00  0.00000000E+00  0.00000000E+00
  0.00000000E+00  0.00000000E+00  0.00000000E+00
  0.00000000E+00  0.00000000E+00  0.00000000E+00
  0.00000000E+00  0.00000000E+00  0.00000000E+00
  0.00000000E+00  0.00000000E+00  0.00000000E+00
  0.00000000E+00  0.00000000E+00  0.00000000E+00
  0.00000000E+00  0.00000000E+00  0.00000000E+00
  0.00000000E+00  0.00000000E+00  0.00000000E+00
  0.00000000E+00  0.00000000E+00  0.00000000E+00
  0.00000000E+00  0.00000000E+00  0.00000000E+00
  0.00000000E+00  0.00000000E+00  0.00000000E+00
  0.00000000E+00  0.00000000E+00  0.00000000E+00
  0.00000000E+00  0.00000000E+00  0.00000000E+00
  0.00000000E+00  0.00000000E+00  0.00000000E+00
  0.00000000E+00  0.00000000E+00  0.00000000E+00
  0.00000000E+00  0.00000000E+00  0.00000000E+00
  0.00000000E+00  0.00000000E+00  0.00000000E+00
  0.00000000E+00  0.00000000E+00  0.00000000E+00
  0.00000000E+00  0.00000000E+00  0.00000000E+00
  0.00000000E+00  0.00000000E+00  0.00000000E+00
  0.00000000E+00  0.00000000E+00  0.00000000E+00
  0.00000000E+00  0.00000000E+00  0.00000000E+00
  0.00000000E+00  0.00000000E+00  0.00000000E+00
  0.00000000E+00  0.00000000E+00  0.00000000E+00
  0.00000000E+00  0.00000000E+00  0.00000000E+00
