au_111_4_layers_5x5_with_h2o_6_bilayers_
   1.00000000000000     
    14.6976995467999991    0.0000000000000000    0.0000000000000000
    -7.3488497733999996   12.7285811846999994    0.0000000000000000
     0.0000000000000000    0.0000000000000000   49.2004013061999999
   Au   H    O 
   100   192    96
Selective dynamics
Direct
  0.0000000000000000  0.0000000000000000  0.0000000000000000   F   F   F
  0.2682095468437475  0.1343016937277814  0.0470701847044133   T   T   T
  0.1319801238426628  0.2670776917043740  0.0941559851800753   T   T   T
 -0.0001068722411263 -0.0000527645501578  0.1404215720949265   T   T   T
  0.9999999999764526  0.2000000029901230  0.0000000000000000   F   F   F
  0.2657541020994671  0.3340156259374042  0.0475743155570684   T   T   T
  0.1337179838259987  0.0658415532445938  0.0936785845304479   T   T   T
 -0.0007368801227323  0.2000981534615337  0.1422382401492780   T   T   T
  0.2000000030136633  0.2000000029901230  0.0000000000000000   F   F   F
  0.0662798253496416  0.3336993709260705  0.0470577887883003   T   T   T
  0.3323812487273642  0.0659362835555082  0.0944969864931553   T   T   T
  0.1978403197786751  0.1982894868877045  0.1401591340551166   T   T   T
  0.2000000029691691  0.0000000000000000  0.0000000000000000   F   F   F
  0.0678032040267201  0.1334576731413286  0.0471251755197470   T   T   T
  0.3336055860951115  0.2665727922319039  0.0939795655262620   T   T   T
  0.2005392820719010  0.0004334184640066  0.1422216899812211   T   T   T
  0.4000000059383453  0.0000000000000000  0.0000000000000000   F   F   F
  0.6667138536906824  0.1342071009160807  0.0471735738012489   T   T   T
  0.5342256472700105  0.2680009909702945  0.0944152974606138   T   T   T
  0.4003727761185608  0.0000553471744256  0.1411890560132327   T   T   T
  0.4000000059828395  0.2000000029901230  0.0000000000000000   F   F   F
  0.6666560709350355  0.3333257806278592  0.0471424342862028   T   T   T
  0.5350622785522809  0.0656638036289439  0.0949138568373989   T   T   T
  0.3998417776490121  0.1999629348253313  0.1410743155697609   T   T   T
  0.6000000238523029  0.2000000029901230  0.0000000000000000   F   F   F
  0.4674344952916498  0.3331666085292300  0.0471599963890180   T   T   T
  0.7333236899099618  0.0669862570157073  0.0939839701433265   T   T   T
  0.5993323726989606  0.1999359654691064  0.1418476310535393   T   T   T
  0.6000000238758432  0.0000000000000000  0.0000000000000000   F   F   F
  0.4667357917845167  0.1325012180652929  0.0480630490366877   T   T   T
  0.7319151731590041  0.2661663332743681  0.0944173387084011   T   T   T
  0.6014187032276780 -0.0001960810377690  0.1425683019709773   T   T   T
  0.8000000119447250  0.0000000000000000  0.0000000000000000   F   F   F
  0.9339256646602878  0.2664279434849183  0.0944964402644067   T   T   T
  0.8015813649238159 -0.0004974707496727  0.1401639083060905   T   T   T
  0.7999999523200216  0.2000000029901230  0.0000000000000000   F   F   F
  0.9340841067257745  0.0678841104296829  0.0936797302404801   T   T   T
  0.7998319058805644  0.1997554259308998  0.1410986123793536   T   T   T
  0.8673849642092364  0.3342227032184827  0.0480556843004712   T   T   T
  0.8656187960415367  0.1338462895667145  0.0470673714344252   T   T   T
  0.0000000000209468  0.4000000059802389  0.0000000000000000   F   F   F
  0.2683923609677935  0.5340397253508304  0.0475229973086962   T   T   T
  0.1331225805938966  0.6658877363405766  0.0949047949212822   T   T   T
 -0.0003263865362140  0.4002001857843904  0.1412051424909591   T   T   T
  0.0000000000055138  0.6000000238188363  0.0000000000000000   F   F   F
  0.2656821168028707  0.7315778005829929  0.0475187283370963   T   T   T
  0.1328509849201685  0.4668531657109299  0.0937610794950562   T   T   T
  0.0000299948268301  0.6015418114803840  0.1425806613482341   T   T   T
  0.2000000178749772  0.6000000238188363  0.0000000000000000   F   F   F
  0.0682948790515018  0.7342137975743900  0.0475821411417664   T   T   T
  0.3338660169524831  0.4670632719349894  0.0948999400627148   T   T   T
  0.1994746110465036  0.5985451873376970  0.1418365215169096   T   T   T
  0.2000000029901230  0.4000000059802389  0.0000000000000000   F   F   F
  0.0657460944565256  0.5336764729298415  0.0472428750681851   T   T   T
  0.3332467058009519  0.6665991918478041  0.0949634992268243   T   T   T
  0.1989449036643903  0.3991906679858067  0.1411158215720312   T   T   T
  0.4000000059592921  0.4000000059802389  0.0000000000000000   F   F   F
  0.6657411065517969  0.5331600017132403  0.0480512884252565   T   T   T
  0.5329646225161025  0.6659345606235304  0.0937585373741761   T   T   T
  0.3983862771742827  0.3984431607362142  0.1425670471073769   T   T   T
  0.4000000357444407  0.6000000238188363  0.0000000000000000   F   F   F
  0.6662554890171942  0.7325598124643613  0.0470563127980436   T   T   T
  0.5305202180352396  0.4648639588536965  0.0948877914825453   T   T   T
  0.4011139638468858  0.6006799734569468  0.1418065807784005   T   T   T
  0.6000000238133225  0.6000000238188363  0.0000000000000000   F   F   F
  0.4659061966387873  0.7343285662894324  0.0475168333715218   T   T   T
  0.7338120000487824  0.4657639038983362  0.0944053970561513   T   T   T
  0.5996249778789470  0.5994602002694750  0.1411887890325727   T   T   T
  0.6000000238287555  0.4000000059802389  0.0000000000000000   F   F   F
  0.4662918737745864  0.5320122678099160  0.0472456694871392   T   T   T
  0.7334635046515744  0.6675075758769471  0.0944807020688211   T   T   T
  0.6006235333783139  0.4006521806082620  0.1418229398112691   T   T   T
  0.8000000118976374  0.4000000059802389  0.0000000000000000   F   F   F
  0.9329384803011728  0.6663240210255500  0.0939783307854241   T   T   T
  0.7999265572037308  0.3993179584811461  0.1418436404369991   T   T   T
  0.8000000118822044  0.6000000238188363  0.0000000000000000   F   F   F
  0.9342692165569344  0.4693471156102547  0.0949003082015985   T   T   T
  0.8000721858924005  0.6000936001131388  0.1410864066417699   T   T   T
  0.8661300045721773  0.7318406880333473  0.0470712430356281   T   T   T
  0.8658177452059459  0.5325656508341599  0.0471638255841776   T   T   T
  0.0000000000419007  0.8000000119604849  0.0000000000000000   F   F   F
  0.2673998129919941  0.9336427193082775  0.0470685996233960   T   T   T
  0.0003570457238962  0.8019852859596106  0.1401714529279925   T   T   T
  0.1349909076344765  0.8678398703756111  0.0941735747473189   T   T   T
  0.3339685087151828  0.8670593512045737  0.0937542187012531   T   T   T
  0.2000000030110698  0.8000000119604849  0.0000000000000000   F   F   F
  0.0656750065464183  0.9321632099844890  0.0471287113018408   T   T   T
  0.2002703193580506  0.8007978877102538  0.1411067376648689   T   T   T
  0.4000000059802389  0.8000000119604849  0.0000000000000000   F   F   F
  0.6659861566791745  0.9317254893995419  0.0475790739916124   T   T   T
  0.3990276771968817  0.8002241780754894  0.1417981604234151   T   T   T
  0.5327735929289260  0.8667803581317743  0.0948923781118237   T   T   T
  0.7327892793981369  0.8648472610557352  0.0941624429098696   T   T   T
  0.6000000238497023  0.8000000119604849  0.0000000000000000   F   F   F
  0.4679752206611163  0.9342516856196825  0.0472501006951174   T   T   T
  0.6005519236488149  0.7995813547184406  0.1410959007944606   T   T   T
  0.8000000119185842  0.8000000119604849  0.0000000000000000   F   F   F
  0.7997888321747064  0.7991334542662637  0.1422349395957845   T   T   T
  0.9320767013347554  0.8662110724104273  0.0936840500726620   T   T   T
  0.8665276012260195  0.9343278889371985  0.0471362309911366   T   T   T
  0.1653811398935252  0.0627340538641016  0.3521196426132213   T   T   T
  0.1718048562791467  0.0642131820954340  0.1982682616975435   T   T   T
  0.3941400641561165  0.3311226933529776  0.3536185804293524   T   T   T
  0.4012484605940081  0.3372685383011604  0.2017700731965287   T   T   T
  0.1030613562938476  0.1657785340412009  0.4313977680448080   T   T   T
  0.1035894387904287  0.1664786947539107  0.2733463565843700   T   T   T
  0.0628035673789184  0.3937308489087742  0.4300535179305162   T   T   T
  0.0628232594051032  0.3974557400284179  0.2775862364700414   T   T   T
  0.1658132960961202  0.1030306350805952  0.4313994303057523   T   T   T
  0.1664687721885803  0.1036831112762875  0.2733328941023345   T   T   T
  0.3937326252373005  0.0627354030887711  0.4300622051539590   T   T   T
  0.3974322601533437  0.0628438404889866  0.2775943429771000   T   T   T
  0.0627349346377953  0.1653756379945275  0.3521144058075560   T   T   T
  0.0637777567170438  0.1717610404285067  0.1982302650922935   T   T   T
  0.3311172906302631  0.3941421989391940  0.3536148621998756   T   T   T
  0.3373623971999710  0.4012391914697812  0.2017043339369642   T   T   T
  0.1760426082780746 -0.0002527415484419  0.4649619066733420   T   T   T
  0.1676103863324633  0.0001822070521372  0.3075544830881589   T   T   T
  0.2350795142682380 -0.0000625048702727  0.4371811223218606   T   T   T
  0.2335543698612840  0.0000667264361065  0.2810914609915178   T   T   T
  0.3229868166749360  0.3230492833684354  0.4636087007644621   T   T   T
  0.3207237352285188  0.3208352298670470  0.3103432354221419   T   T   T
  0.2625037175795986  0.2624800136694927  0.4362225658908583   T   T   T
  0.2630578713337444  0.2631531319100338  0.2816747949250844   T   T   T
 -0.0002004104440200  0.1760580689681246  0.4649558605351607   T   T   T
  0.0000949988203220  0.1675681780231240  0.3075510225258439   T   T   T
 -0.0000062441359367  0.2350746189417329  0.4371716667829068   T   T   T
  0.0000036364096950  0.2335278312820460  0.2810876923565240   T   T   T
  0.3232199157658746 -0.0000834270537672  0.3863004956934237   T   T   T
  0.3365748107158323  0.0000973990996015  0.2335974457445222   T   T   T
  0.2634102920190197 -0.0000118745350580  0.3582445855313351   T   T   T
  0.2753199815691451  0.0002768947821797  0.2062507766263911   T   T   T
  0.1671174657458827  0.1671064964967762  0.3866216771999346   T   T   T
  0.1728497772316024  0.1730680091407561  0.2294995549984211   T   T   T
  0.2318069742323239  0.2318073797707277  0.3596873800401583   T   T   T
  0.2369586648409943  0.2371134118326017  0.2027019818653316   T   T   T
 -0.0000003970895069  0.3232405743554622  0.3862950454698526   T   T   T
  0.0001699549486363  0.3366267957207680  0.2335961078469133   T   T   T
  0.0000425548856750  0.2634258006341365  0.3582361153457062   T   T   T
  0.0000330914893066  0.2752077194628242  0.2062483952948598   T   T   T
  0.6689782220927460  0.0631489934678030  0.3535803756343074   T   T   T
  0.6625592957596089  0.0636605467383953  0.2017937791010303   T   T   T
  0.8966137008269160  0.3320265913421759  0.3543401501322377   T   T   T
  0.8941115154022617  0.3410348785042645  0.2013478953685274   T   T   T
  0.4353931756616047  0.1033694236882051  0.3543532036041135   T   T   T
  0.4473957892477135  0.1060184795487934  0.2012665004271274   T   T   T
  0.6038607442546889  0.1661750359721576  0.4305953823607846   T   T   T
  0.6047005911062170  0.1659136145185339  0.2790481584888540   T   T   T
  0.5623904593916695  0.3960147752797800  0.4306101206891430   T   T   T
  0.5611827927775939  0.3951488753029234  0.2790314833691462   T   T   T
  0.4363082638802384  0.3324415196323210  0.4308284367103677   T   T   T
  0.4342571540772424  0.3303007553928826  0.2788912080594133   T   T   T
  0.6675886668244376  0.1038373893423303  0.4308162116074558   T   T   T
  0.6695429436478790  0.1038012133784974  0.2789253165178439   T   T   T
  0.8969004659706876  0.0628086487682038  0.4313241731732165   T   T   T
  0.8964406656607127  0.0628926400429679  0.2733620411398675   T   T   T
  0.5622509231259312  0.1655477959159274  0.3545024504314191   T   T   T
  0.5732644568905195  0.1709130397869784  0.2042270519634125   T   T   T
  0.8345481681608858  0.3968049667143369  0.3545115527180192   T   T   T
  0.8288569998404348  0.4016879456847731  0.2042281923839643   T   T   T
  0.6772895046659749  0.0001662409279433  0.4636129845752500   T   T   T
  0.6791136300313815 -0.0001320212321381  0.3103239636884839   T   T   T
  0.7376250244322670  0.0001034992382622  0.4361906614792379   T   T   T
  0.7368833314060381 -0.0000575403327411  0.2816638746604890   T   T   T
  0.8266702917214505  0.3248008327510249  0.4631679815132629   T   T   T
  0.8314292151412479  0.3309974229979430  0.3114376057828693   T   T   T
  0.7644111170198398  0.2639833431806456  0.4359969248061320   T   T   T
  0.7678271637499221  0.2677691380899411  0.2843317676806780   T   T   T
  0.4981400261482936  0.1732070749943179  0.4631690642116738   T   T   T
  0.4994214046788888  0.1684572426608575  0.3114434894079910   T   T   T
  0.4995073220652060  0.2354869670117661  0.4360091567861169   T   T   T
  0.4998464998848574  0.2320208530100801  0.2843227321577644   T   T   T
  0.8328726894804042  0.0001439954003371  0.3865453403486066   T   T   T
  0.8270336289058841 -0.0000404690627538  0.2295207920289777   T   T   T
  0.7682090375995504  0.0001106789894961  0.3596022526889185   T   T   T
  0.7628241039255189 -0.0001981519643886  0.2027306118409465   T   T   T
  0.6704639043149149  0.1688489222266292  0.3868592359188373   T   T   T
  0.6765552877914723  0.1710493824152448  0.2364178291163452   T   T   T
  0.7333859262847005  0.2330240904915880  0.3597644382809504   T   T   T
  0.7376884713464431  0.2373281925093056  0.2089294642058645   T   T   T
  0.4984522975417207  0.3295683971575980  0.3868642694532000   T   T   T
  0.4946945865110901  0.3232546928898327  0.2363669379118972   T   T   T
  0.4996126467779398  0.2666533791067601  0.3597617576956904   T   T   T
  0.5001374497072729  0.2623573078161660  0.2088711329615941   T   T   T
  0.1655734348217050  0.5622608215502790  0.3544748813313999   T   T   T
  0.1707643204260947  0.5730891938767807  0.2040610752048514   T   T   T
  0.3968182009697912  0.8345192164218860  0.3544902715199985   T   T   T
  0.4017053608111719  0.8290428738964298  0.2040451766262536   T   T   T
  0.3324479999603642  0.4362610672307694  0.4308027416616587   T   T   T
  0.3301594542453462  0.4343357585142627  0.2788168221869480   T   T   T
  0.1038933546814809  0.6675814244475390  0.4308075370240940   T   T   T
  0.1039887137399701  0.6697199897138434  0.2788305383575844   T   T   T
  0.0628285327805241  0.8968703182159086  0.4313229592572505   T   T   T
  0.0629558742250762  0.8965345768182369  0.2733763939257914   T   T   T
  0.1662241351010443  0.6038488120987409  0.4305750074662122   T   T   T
  0.1660179995631735  0.6048374851223528  0.2789615113002782   T   T   T
  0.3960378563505967  0.5623389389846312  0.4305860091636682   T   T   T
  0.3950466772413337  0.5612187273172358  0.2789652874257819   T   T   T
  0.0631775825516331  0.6689721455258339  0.3535723508835746   T   T   T
  0.0635821935002553  0.6624430864942097  0.2017399543681138   T   T   T
  0.3320247561237143  0.8965639491498488  0.3543197981097427   T   T   T
  0.3410677551964409  0.8943589211162238  0.2012351905918855   T   T   T
  0.1034162795897942  0.4354084972291939  0.3543247991028914   T   T   T
  0.1057714369390022  0.4471597494290267  0.2011869319824162   T   T   T
  0.1733114368424954  0.4981740441080290  0.4631508661192234   T   T   T
  0.1684824198641790  0.4995350137430966  0.3114029796944255   T   T   T
  0.2355464185846586  0.4995015799650940  0.4359850619957187   T   T   T
  0.2319784315252679  0.4999372237972589  0.2842688193308556   T   T   T
  0.3248562947427584  0.8265644768685759  0.4631629281267620   T   T   T
  0.3310596660381688  0.8313893544451044  0.3113991166296459   T   T   T
  0.2640247349387482  0.7643567860528233  0.4359874580784326   T   T   T
  0.2678619576034289  0.7678785794680333  0.2842764471042052   T   T   T
  0.0002928323953490  0.6773275763865386  0.4636198913358874   T   T   T
  0.0000697900284921  0.6792137778135836  0.3103134693211298   T   T   T
  0.0001439672782801  0.7376004774003063  0.4361931805747045   T   T   T
  0.0000644712527967  0.7369724107162189  0.2816599490080654   T   T   T
  0.3295579223131337  0.4984402740882274  0.3868427417525209   T   T   T
  0.3232625651997063  0.4949386597822704  0.2362492284919444   T   T   T
  0.2666587425697861  0.4996221833997889  0.3597345749188399   T   T   T
  0.2623749356968930  0.5001543762981843  0.2087342743328945   T   T   T
  0.1688935618327425  0.6704694934707870  0.3868397858703082   T   T   T
  0.1713758722074843  0.6766684930507889  0.2362920680407859   T   T   T
  0.2330531490791591  0.7333736417822236  0.3597392157554287   T   T   T
  0.2373797857154826  0.7377018711835942  0.2087719848978574   T   T   T
  0.0001533077831392  0.8328471265782297  0.3865453382097491   T   T   T
  0.0002729721814610  0.8271935585137234  0.2295249077542729   T   T   T
  0.0001410841923714  0.7682082381798598  0.3595991794645516   T   T   T
  0.0000512571028889  0.7629382135571654  0.2027393183108639   T   T   T
  0.6681468876484250  0.5646333452602239  0.3543564708530297   T   T   T
  0.6587842645974376  0.5529627186228656  0.2013114305799658   T   T   T
  0.8974923261440033  0.8348130761962180  0.3520862479650390   T   T   T
  0.8926023155270718  0.8284499623039017  0.1982852333692811   T   T   T
  0.4377914299058906  0.6034271052426625  0.3545090472521782   T   T   T
  0.4271695737350558  0.5978258970002188  0.2040499143711880   T   T   T
  0.8339812715052549  0.4377486111600460  0.4306127416949734   T   T   T
  0.8338162785783506  0.4387500548894145  0.2790267467649339   T   T   T
  0.6062070652545342  0.6690148568157060  0.4300875126653977   T   T   T
  0.6025966412981481  0.6655180143758894  0.2775866386547348   T   T   T
  0.5638692310274852  0.8963642211674309  0.4308347792472116   T   T   T
  0.5656556105592869  0.8957597240056996  0.2788127037620975   T   T   T
  0.4377897875726525  0.8339070088547752  0.4306016094801954   T   T   T
  0.4387584151109836  0.8337215669683776  0.2789470795379325   T   T   T
  0.6690763018109741  0.6061895108905889  0.4300867882059197   T   T   T
  0.6655379064134483  0.6026192027373170  0.2775896730356451   T   T   T
  0.8964486329858797  0.5638358884036928  0.4308501056492459   T   T   T
  0.8959336930283874  0.5656944790200943  0.2788882146822824   T   T   T
  0.5646407060628317  0.6681254542609513  0.3543394075630467   T   T   T
  0.5531578506169839  0.6587796729997920  0.2012109482041050   T   T   T
  0.8348317764252475  0.8974842439641604  0.3520878630506517   T   T   T
  0.8285551050404475  0.8923443185060190  0.1982474062737889   T   T   T
  0.6034440832776093  0.4377870902280062  0.3545292850479183   T   T   T
  0.5978066845102621  0.4270157896728551  0.2042163983407328   T   T   T
  0.6753496175626666  0.5017036213733648  0.4631553353040078   T   T   T
  0.6689703575316109  0.5004747687176107  0.3114480579201044   T   T   T
  0.7362529075629274  0.5004834801497925  0.4359825168228041   T   T   T
  0.7320910885471187  0.5000711949436125  0.2843257773739296   T   T   T
  0.8242251814660319  0.8241926623051995  0.4649027710382740   T   T   T
  0.8326640145470282  0.8326409147587501  0.3075510395910094   T   T   T
  0.7650389195389566  0.7650184241258696  0.4371738283935038   T   T   T
  0.7666583548021941  0.7666459534167929  0.2810881108997580   T   T   T
  0.5016252703778927  0.6752131130923950  0.4631475607220400   T   T   T
  0.5003999391814619  0.6689337561378100  0.3114208451813446   T   T   T
  0.5004918813723279  0.7361526810761511  0.4359747167090571   T   T   T
  0.5000215473133965  0.7320236160883682  0.2842831268857202   T   T   T
  0.8314513616796665  0.5017917488527172  0.3868728142569938   T   T   T
  0.8284356911140963  0.5050590340932258  0.2363641821382041   T   T   T
  0.7672345308913417  0.5005164439482258  0.3597824058314183   T   T   T
  0.7621330049409698  0.4997630879717753  0.2088765097816533   T   T   T
  0.6768302581606562  0.6768120707394129  0.3863144928837274   T   T   T
  0.6636564868759890  0.6637311906532719  0.2335962294468353   T   T   T
  0.7366957544280340  0.7366855020998211  0.3582638226428814   T   T   T
  0.7250699094263503  0.7250004775885627  0.2062498530937358   T   T   T
  0.5017878457556344  0.8313817833923731  0.3868629248470384   T   T   T
  0.5048544082940248  0.8281686948729239  0.2362402619624728   T   T   T
  0.5005277279208421  0.7672090329994559  0.3597651518208126   T   T   T
  0.4997386769172101  0.7621199406802380  0.2087244183194396   T   T   T
  0.9374272247452036  0.1027364926097320  0.3520879720598686   T   T   T
  0.9358424607645264  0.1077447075496504  0.1982855140849825   T   T   T
  0.9371251610621684  0.3308668856210069  0.4300496137184234   T   T   T
  0.9369585172657739  0.3344893064169477  0.2775739695103638   T   T   T
  0.9371350464200653  0.6059423285627902  0.3535893709495369   T   T   T
  0.9357380485048609  0.5984537893018892  0.2017770039401814   T   T   T
  0.9373296898581853  0.8341380314144756  0.4312907973190448   T   T   T
  0.9372815108028436  0.8336745484829567  0.2733561830151943   T   T   T
  0.3308800233719379  0.9370645627132227  0.4300542760115384   T   T   T
  0.3345134415185619  0.9369819204954147  0.2775717426790636   T   T   T
  0.1027337254288735  0.9374227881096874  0.3520907020872470   T   T   T
  0.1080303272176257  0.9362773601766561  0.1982522046848741   T   T   T
  0.8341667144233990  0.9373071234383065  0.4312935932908160   T   T   T
  0.8336282321809134  0.9372229591503323  0.2733597475909910   T   T   T
  0.6059455249019030  0.9371036817360717  0.3535969832834026   T   T   T
  0.5985179154921727  0.9358239218416120  0.2017162682339469   T   T   T
  0.1700973159992859 -0.0001230894521706  0.4451408270234827   T   T   T
  0.1672184284097020  0.0001493172706358  0.2874096483821811   T   T   T
  0.1665802882771061  0.0001101244727785  0.3443481982589448   T   T   T
  0.1764206546899094  0.0003239105418721  0.1931338212133757   T   T   T
  0.3280732804612420  0.3280706756134277  0.4437572793880312   T   T   T
  0.3263153074090240  0.3264607569354462  0.2902611884884800   T   T   T
  0.3288293091119025  0.3288273565221326  0.3465503102469427   T   T   T
  0.3410651651786960  0.3409931645034395  0.1930133377195810   T   T   T
 -0.0000892659714576  0.1700832465990119  0.4451356932136203   T   T   T
  0.0000376387973607  0.1671677951965823  0.2874063879974905   T   T   T
  0.0001166606607054  0.1665729043468019  0.3443412392090082   T   T   T
 -0.0002317998573871  0.1761941706576265  0.1931302295779749   T   T   T
  0.3277177398221401 -0.0000726542557079  0.3662077376008067   T   T   T
  0.3400022426078541  0.0001702058566435  0.2134515898949257   T   T   T
  0.3289854340553117 -0.0000855986807604  0.4227994114860174   T   T   T
  0.3337077775702630 -0.0000716463178453  0.2698493323658887   T   T   T
  0.1659778893983147  0.1659817288875256  0.3665000612713777   T   T   T
  0.1710038943832726  0.1712499937176422  0.2093111944697165   T   T   T
  0.1660218648140701  0.1659872391436936  0.4234548971500272   T   T   T
  0.1683395003541113  0.1684155650806039  0.2660107181829965   T   T   T
  0.0000226066111178  0.3277508833390733  0.3662018270807748   T   T   T
  0.0002081167029992  0.3400294906674824  0.2134502957004069   T   T   T
 -0.0000226484041432  0.3289799853577450  0.4227928229375356   T   T   T
 -0.0000745769674933  0.3337231884023144  0.2698471765071099   T   T   T
  0.6720919087914521  0.0001173099446595  0.4437651882540066   T   T   T
  0.6735021978122283 -0.0002125020943083  0.2902391604559189   T   T   T
  0.6711907983923392  0.0001106591236835  0.3464951055193477   T   T   T
  0.6588029545262717 -0.0002406407600824  0.1930260495447226   T   T   T
  0.8304924008052549  0.3295784472927207  0.4433016762751597   T   T   T
  0.8332988115979106  0.3336995847268583  0.2912771367862276   T   T   T
  0.8319615114678298  0.3313940651386823  0.3473979220180066   T   T   T
  0.8258861634509399  0.3367915990328507  0.1964401397084645   T   T   T
  0.4990437277713030  0.1693998725006639  0.4433030219160728   T   T   T
  0.5002020240137248  0.1665120858819131  0.2912823703914122   T   T   T
  0.4993596567563982  0.1680259041456725  0.3473923829810326   T   T   T
  0.5115426869589406  0.1741080540759239  0.1963728832814449   T   T   T
  0.8340448378647376  0.0001377840644246  0.3664271902712658   T   T   T
  0.8288290005517160 -0.0000326777624211  0.2093331019324243   T   T   T
  0.8339393011152556  0.0000783686575598  0.4233694724125267   T   T   T
  0.8317068898489661  0.0000506558648830  0.2660302221043314   T   T   T
  0.6680947011173775  0.1669951966077930  0.3667202979619071   T   T   T
  0.6748765425346752  0.1687461427573921  0.2162693113635333   T   T   T
  0.6681290900426200  0.1674529274828967  0.4232002268366882   T   T   T
  0.6705315367990845  0.1687931362254270  0.2721370085272702   T   T   T
  0.4989674637588933  0.3319785048990868  0.3667260622116416   T   T   T
  0.4941432732147770  0.3250086220469387  0.2162181775549033   T   T   T
  0.4993347425179049  0.3318071501656366  0.4232139156006883   T   T   T
  0.4982652892616504  0.3293309128762693  0.2721028794862715   T   T   T
  0.1694692090336640  0.4990497689402667  0.4432841485777905   T   T   T
  0.1665078318366253  0.5003125197417538  0.2912416009554938   T   T   T
  0.1680567557279876  0.4993812225885502  0.3473582817630620   T   T   T
  0.1737905062831960  0.5112722277552700  0.1962029286500385   T   T   T
  0.3296272930378690  0.8304326998783278  0.4432968064704225   T   T   T
  0.3337838639128753  0.8332988404191412  0.2912389786910103   T   T   T
  0.3314158176941979  0.8319337864087645  0.3473677747466824   T   T   T
  0.3368919597314122  0.8262189190115858  0.1962424254083148   T   T   T
  0.0001952755566569  0.6720918804609051  0.4437717783817951   T   T   T
  0.0000035886125456  0.6736291914008161  0.2902281931846787   T   T   T
  0.0001401615849513  0.6711885680861832  0.3464872650519702   T   T   T
 -0.0003698282473156  0.6586881923289857  0.1930319112713108   T   T   T
  0.3319807122562554  0.4989695196621423  0.3667027536652930   T   T   T
  0.3250961159787888  0.4944079900993748  0.2161033051117336   T   T   T
  0.3318278017978282  0.4992907521014435  0.4231852508712809   T   T   T
  0.3292580669544249  0.4983507522453737  0.2720063872281263   T   T   T
  0.1670279548556518  0.6680873060754828  0.3667004815047278   T   T   T
  0.1689756503071143  0.6748597050512437  0.2161457068705321   T   T   T
  0.1674981942723643  0.6681207146508384  0.4231834375003283   T   T   T
  0.1689298460065194  0.6706576150006599  0.2720279897868034   T   T   T
  0.0001450982552856  0.8340277137551408  0.3664268260543024   T   T   T
  0.0003497173804745  0.8290075446895273  0.2093373287420483   T   T   T
  0.0001009293499972  0.8339111212935802  0.4233667396023414   T   T   T
  0.0001463313983176  0.8317938441795538  0.2660375492619194   T   T   T
  0.6705661371663861  0.5007963399734793  0.4432903952402169   T   T   T
  0.6662036008577038  0.4996733085155405  0.2912881411901853   T   T   T
  0.6688182416882704  0.5006434389446199  0.3474136445297688   T   T   T
  0.6627234245901409  0.4888212548729259  0.1963997511692262   T   T   T
  0.8300645097103333  0.8300411389213843  0.4450770552275120   T   T   T
  0.8330389419781605  0.8330183789988426  0.2874045884177638   T   T   T
  0.8336436851970670  0.8336324366751464  0.3443434093762412   T   T   T
  0.8241379266261882  0.8239084232263677  0.1931470576960045   T   T   T
  0.5007921361526186  0.6704613264467302  0.4432831512068257   T   T   T
  0.4995875465726969  0.6661481931509469  0.2912610488502992   T   T   T
  0.5006528640042728  0.6687962967974798  0.3473912890706758   T   T   T
  0.4890437467799368  0.6626656634897300  0.1962141179636248   T   T   T
  0.8332853912615614  0.5012949202932835  0.3667338022998504   T   T   T
  0.8306540766128254  0.5054285626283449  0.2162156932862772   T   T   T
  0.8328542065943707  0.5008108634053676  0.4232099590125103   T   T   T
  0.8309385676852326  0.5016783588054916  0.2721019104550004   T   T   T
  0.6723608885671436  0.6723581323679548  0.3662239455201739   T   T   T
  0.6602780475429442  0.6603289547974923  0.2134515422592320   T   T   T
  0.6709819028933256  0.6709519480511738  0.4228460909990579   T   T   T
  0.6663575928573382  0.6663639597405626  0.2698566554176900   T   T   T
  0.5012853223474996  0.8332446738467318  0.3667230303672823   T   T   T
  0.5052337656421263  0.8304883439195462  0.2160948366050549   T   T   T
  0.5008411412502373  0.8327629498369283  0.4231994464817548   T   T   T
  0.5016513010422934  0.8308217813711798  0.2720041665967829   T   T   T
