bilayer_1                               
   1.00000000000000     
    14.6976995467999991    0.0000000000000000    0.0000000000000000
    -7.3488497733999996   12.7285811846999994    0.0000000000000000
     0.0000000000000000    0.0000000000000000   49.2004013061999999
   H    O 
    48    24
Selective dynamics
Direct
  0.1065711786747829  0.1694872140029861  0.2133760543427727   T   T   T
  0.0629160373282033  0.3934288323252215  0.2133760543427727   T   T   T
  0.1694872020029851  0.1065711776747793  0.2133760543427727   T   T   T
  0.3934288163252201  0.0629160363282068  0.2133760543427727   T   T   T
  0.1771393400969742 -0.0000000000000000  0.1803638321566607   T   T   T
  0.2393747053595467 -0.0000000000000000  0.2081114500926759   T   T   T
  0.3228606419030242  0.3228606409030205  0.1803638321566607   T   T   T
  0.2606252956404498  0.2606252976404499  0.2081114500926759   T   T   T
  0.0000000049999969  0.1771393500969750  0.1803638321566607   T   T   T
  0.0000000029999967  0.2393747123595437  0.2081114500926759   T   T   T
  0.6065711296747827  0.1694872140029861  0.2133760543427727   T   T   T
  0.5629160133282013  0.3934288323252215  0.2133760543427727   T   T   T
  0.4370839796717947  0.3305128149970126  0.2133760543427727   T   T   T
  0.6694872020029849  0.1065711776747793  0.2133760543427727   T   T   T
  0.8934288163252200  0.0629160363282068  0.2133760543427727   T   T   T
  0.6771393240969799 -0.0000000000000000  0.1803638321566607   T   T   T
  0.7393747383595455 -0.0000000000000000  0.2081114500926759   T   T   T
  0.8228606259030231  0.3228606409030205  0.1803638321566607   T   T   T
  0.7606252796404560  0.2606252976404499  0.2081114500926759   T   T   T
  0.4999999970000033  0.1771393500969750  0.1803638321566607   T   T   T
  0.5000000029999967  0.2393747123595437  0.2081114500926759   T   T   T
  0.3305127919970142  0.4370839546717962  0.2133760543427727   T   T   T
  0.1065711926747770  0.6694872420029812  0.2133760543427727   T   T   T
  0.0629160523282081  0.8934288793252216  0.2133760543427727   T   T   T
  0.1694872230029833  0.6065711866747767  0.2133760543427727   T   T   T
  0.3934288473252192  0.5629160643282020  0.2133760543427727   T   T   T
  0.1771393450969782  0.5000000100000008  0.1803638321566607   T   T   T
  0.2393747103595436  0.5000000100000008  0.2081114500926759   T   T   T
  0.3228606659030261  0.8228606879030211  0.1803638321566607   T   T   T
  0.2606253006404537  0.7606253066404547  0.2081114500926759   T   T   T
  0.0000000269999987  0.6771393790969737  0.1803638321566607   T   T   T
  0.0000000109999974  0.7393747593595437  0.2081114500926759   T   T   T
  0.8305127599970119  0.4370839546717962  0.2133760543427727   T   T   T
  0.6065711606747817  0.6694872420029812  0.2133760543427727   T   T   T
  0.5629160523282081  0.8934288793252216  0.2133760543427727   T   T   T
  0.4370840006717929  0.8305128239970172  0.2133760543427727   T   T   T
  0.6694872230029831  0.6065711866747767  0.2133760543427727   T   T   T
  0.8934288793252216  0.5629160643282020  0.2133760543427727   T   T   T
  0.6771393130969754  0.5000000100000008  0.1803638321566607   T   T   T
  0.7393747263595445  0.5000000100000008  0.2081114500926759   T   T   T
  0.8228606659030264  0.8228606879030211  0.1803638321566607   T   T   T
  0.7606253006404542  0.7606253066404547  0.2081114500926759   T   T   T
  0.5000000269999987  0.6771393790969737  0.1803638321566607   T   T   T
  0.5000000109999974  0.7393747593595437  0.2081114500926759   T   T   T
  0.9370839466717954  0.3305128149970126  0.2133760543427727   T   T   T
  0.9370839676717936  0.8305128239970172  0.2133760543427727   T   T   T
  0.3305128129970124  0.9370839646717969  0.2133760543427727   T   T   T
  0.8305127809970172  0.9370839646717969  0.2133760543427727   T   T   T
  0.1713344408771365 -0.0000000000000000  0.2000123961025771   T   T   T
  0.3286655531228629  0.3286655471228624  0.2000123961025771   T   T   T
  0.0000000009999965  0.1713344438771404  0.2000123961025771   T   T   T
  0.3270725788963570 -0.0000000000000000  0.2194601849625490   T   T   T
  0.1729274041036453  0.1729274041036453  0.2194601849625490   T   T   T
  0.0000000040000003  0.3270725868963577  0.2194601849625490   T   T   T
  0.6713344408771366 -0.0000000000000000  0.2000123961025771   T   T   T
  0.8286655211228603  0.3286655471228624  0.2000123961025771   T   T   T
  0.5000000169999979  0.1713344438771404  0.2000123961025771   T   T   T
  0.8270725788963569 -0.0000000000000000  0.2194601849625490   T   T   T
  0.6729274451036451  0.1729274041036453  0.2194601849625490   T   T   T
  0.5000000200000017  0.3270725868963577  0.2194601849625490   T   T   T
  0.1713344458771405  0.5000000100000008  0.2000123961025771   T   T   T
  0.3286655931228591  0.8286655941228628  0.2000123961025771   T   T   T
  0.0000000149999977  0.6713344718771356  0.2000123961025771   T   T   T
  0.3270725838963539  0.5000000100000008  0.2194601849625490   T   T   T
  0.1729273941036445  0.6729274321036405  0.2194601849625490   T   T   T
  0.9999999899999992  0.8270725588963552  0.2194601849625490   T   T   T
  0.6713344298771392  0.5000000100000008  0.2000123961025771   T   T   T
  0.8286655601228600  0.8286655941228628  0.2000123961025771   T   T   T
  0.5000000149999977  0.6713344718771356  0.2000123961025771   T   T   T
  0.8270725678963595  0.5000000100000008  0.2194601849625490   T   T   T
  0.6729274431036449  0.6729274321036405  0.2194601849625490   T   T   T
  0.4999999899999992  0.8270725588963552  0.2194601849625490   T   T   T
 
  0.00000000E+00  0.00000000E+00  0.00000000E+00
  0.00000000E+00  0.00000000E+00  0.00000000E+00
  0.00000000E+00  0.00000000E+00  0.00000000E+00
  0.00000000E+00  0.00000000E+00  0.00000000E+00
  0.00000000E+00  0.00000000E+00  0.00000000E+00
  0.00000000E+00  0.00000000E+00  0.00000000E+00
  0.00000000E+00  0.00000000E+00  0.00000000E+00
  0.00000000E+00  0.00000000E+00  0.00000000E+00
  0.00000000E+00  0.00000000E+00  0.00000000E+00
  0.00000000E+00  0.00000000E+00  0.00000000E+00
  0.00000000E+00  0.00000000E+00  0.00000000E+00
  0.00000000E+00  0.00000000E+00  0.00000000E+00
  0.00000000E+00  0.00000000E+00  0.00000000E+00
  0.00000000E+00  0.00000000E+00  0.00000000E+00
  0.00000000E+00  0.00000000E+00  0.00000000E+00
  0.00000000E+00  0.00000000E+00  0.00000000E+00
  0.00000000E+00  0.00000000E+00  0.00000000E+00
  0.00000000E+00  0.00000000E+00  0.00000000E+00
  0.00000000E+00  0.00000000E+00  0.00000000E+00
  0.00000000E+00  0.00000000E+00  0.00000000E+00
  0.00000000E+00  0.00000000E+00  0.00000000E+00
  0.00000000E+00  0.00000000E+00  0.00000000E+00
  0.00000000E+00  0.00000000E+00  0.00000000E+00
  0.00000000E+00  0.00000000E+00  0.00000000E+00
  0.00000000E+00  0.00000000E+00  0.00000000E+00
  0.00000000E+00  0.00000000E+00  0.00000000E+00
  0.00000000E+00  0.00000000E+00  0.00000000E+00
  0.00000000E+00  0.00000000E+00  0.00000000E+00
  0.00000000E+00  0.00000000E+00  0.00000000E+00
  0.00000000E+00  0.00000000E+00  0.00000000E+00
  0.00000000E+00  0.00000000E+00  0.00000000E+00
  0.00000000E+00  0.00000000E+00  0.00000000E+00
  0.00000000E+00  0.00000000E+00  0.00000000E+00
  0.00000000E+00  0.00000000E+00  0.00000000E+00
  0.00000000E+00  0.00000000E+00  0.00000000E+00
  0.00000000E+00  0.00000000E+00  0.00000000E+00
  0.00000000E+00  0.00000000E+00  0.00000000E+00
  0.00000000E+00  0.00000000E+00  0.00000000E+00
  0.00000000E+00  0.00000000E+00  0.00000000E+00
  0.00000000E+00  0.00000000E+00  0.00000000E+00
  0.00000000E+00  0.00000000E+00  0.00000000E+00
  0.00000000E+00  0.00000000E+00  0.00000000E+00
  0.00000000E+00  0.00000000E+00  0.00000000E+00
  0.00000000E+00  0.00000000E+00  0.00000000E+00
  0.00000000E+00  0.00000000E+00  0.00000000E+00
  0.00000000E+00  0.00000000E+00  0.00000000E+00
  0.00000000E+00  0.00000000E+00  0.00000000E+00
  0.00000000E+00  0.00000000E+00  0.00000000E+00
  0.00000000E+00  0.00000000E+00  0.00000000E+00
  0.00000000E+00  0.00000000E+00  0.00000000E+00
  0.00000000E+00  0.00000000E+00  0.00000000E+00
  0.00000000E+00  0.00000000E+00  0.00000000E+00
  0.00000000E+00  0.00000000E+00  0.00000000E+00
  0.00000000E+00  0.00000000E+00  0.00000000E+00
  0.00000000E+00  0.00000000E+00  0.00000000E+00
  0.00000000E+00  0.00000000E+00  0.00000000E+00
  0.00000000E+00  0.00000000E+00  0.00000000E+00
  0.00000000E+00  0.00000000E+00  0.00000000E+00
  0.00000000E+00  0.00000000E+00  0.00000000E+00
  0.00000000E+00  0.00000000E+00  0.00000000E+00
  0.00000000E+00  0.00000000E+00  0.00000000E+00
  0.00000000E+00  0.00000000E+00  0.00000000E+00
  0.00000000E+00  0.00000000E+00  0.00000000E+00
  0.00000000E+00  0.00000000E+00  0.00000000E+00
  0.00000000E+00  0.00000000E+00  0.00000000E+00
  0.00000000E+00  0.00000000E+00  0.00000000E+00
  0.00000000E+00  0.00000000E+00  0.00000000E+00
  0.00000000E+00  0.00000000E+00  0.00000000E+00
  0.00000000E+00  0.00000000E+00  0.00000000E+00
  0.00000000E+00  0.00000000E+00  0.00000000E+00
  0.00000000E+00  0.00000000E+00  0.00000000E+00
  0.00000000E+00  0.00000000E+00  0.00000000E+00
