au_111_4_layers_5x5_with_h2o_6_bilayers_
   1.00000000000000     
    14.6976995467999991    0.0000000000000000    0.0000000000000000
    -7.3488497733999996   12.7285811846999994    0.0000000000000000
     0.0000000000000000    0.0000000000000000   49.2004013061999999
   Au   H    O 
   100   240   120
Selective dynamics
Direct
  0.0000000000000000  0.0000000000000000  0.0000000000000000   F   F   F
  0.2681167530011095  0.1344519815902174  0.0470344592105647   T   T   T
  0.1316613715739976  0.2666505935900858  0.0940326339227724   T   T   T
  0.9998427426035690  0.9998584966002326  0.1403762371668549   T   T   T
  0.9999999999764526  0.2000000029901230  0.0000000000000000   F   F   F
  0.2656971459680051  0.3342578841943009  0.0475694376105906   T   T   T
  0.1335552536195976  0.0659651693925909  0.0936629784324410   T   T   T
  0.9992368027283547  0.1994372116299132  0.1421984701524934   T   T   T
  0.2000000030136633  0.2000000029901230  0.0000000000000000   F   F   F
  0.0659301983956837  0.3336542798633602  0.0469757781493527   T   T   T
  0.3320739460220636  0.0660029144531933  0.0944065968696890   T   T   T
  0.1978599651003705  0.1982874379703290  0.1401762416033847   T   T   T
  0.2000000029691691  0.0000000000000000  0.0000000000000000   F   F   F
  0.0676624158463497  0.1333314839869502  0.0470836670637453   T   T   T
  0.3334621917980485  0.2669617746272550  0.0939173201390986   T   T   T
  0.2001144694228785  0.0004521295162263  0.1422072888547703   T   T   T
  0.4000000059383453  0.0000000000000000  0.0000000000000000   F   F   F
  0.6666373281768188  0.1341751789938002  0.0471579576452754   T   T   T
  0.5341186651374272  0.2682885770525871  0.0944723222797990   T   T   T
  0.3992186200096057  0.9996101556742119  0.1409754193474129   T   T   T
  0.4000000059828395  0.2000000029901230  0.0000000000000000   F   F   F
  0.6666525409185979  0.3333148819593319  0.0471515508508276   T   T   T
  0.5346548035164815  0.0653056216419614  0.0949012124616146   T   T   T
  0.3990312507235743  0.2000296455598516  0.1409685251722337   T   T   T
  0.6000000238523029  0.2000000029901230  0.0000000000000000   F   F   F
  0.4674972614663204  0.3333552567232516  0.0471466145489430   T   T   T
  0.7327387540461885  0.0663414485688065  0.0939211072083737   T   T   T
  0.5977848244876114  0.1992962220708563  0.1418967109247120   T   T   T
  0.6000000238758432  0.0000000000000000  0.0000000000000000   F   F   F
  0.4668484010413110  0.1327652123136573  0.0480886707882178   T   T   T
  0.7310329906418715  0.2654801366042960  0.0945442305771849   T   T   T
  0.6009153868258110  0.9997349145277354  0.1425882660836137   T   T   T
  0.8000000119447250  0.0000000000000000  0.0000000000000000   F   F   F
  0.9334496046908498  0.2657927549519670  0.0944259891369654   T   T   T
  0.8013798049533065  0.9993916138088110  0.1401860813746367   T   T   T
  0.7999999523200216  0.2000000029901230  0.0000000000000000   F   F   F
  0.9336190505832036  0.0674618417918325  0.0936521298207751   T   T   T
  0.7994330409752664  0.1987180834035271  0.1409908675532492   T   T   T
  0.8669143387174216  0.3339130428889945  0.0481238308441618   T   T   T
  0.8654285323495046  0.1335939624980114  0.0470262922594387   T   T   T
  0.0000000000209468  0.4000000059802389  0.0000000000000000   F   F   F
  0.2685163399618276  0.5342422130162845  0.0475362624121729   T   T   T
  0.1331385248103700  0.6652718674407723  0.0949502115387304   T   T   T
  0.9997233387175655  0.3992636473700628  0.1409839033118843   T   T   T
  0.0000000000055138  0.6000000238188363  0.0000000000000000   F   F   F
  0.2656285050073635  0.7313451870002439  0.0475120200723183   T   T   T
  0.1328075915513764  0.4663310773486273  0.0936565999342918   T   T   T
  0.9998450851807874  0.6008513232655730  0.1425949182368953   T   T   T
  0.2000000178749772  0.6000000238188363  0.0000000000000000   F   F   F
  0.0684365778160085  0.7340829652912291  0.0475780007945232   T   T   T
  0.3342925033813628  0.4676517101549464  0.0949455365144161   T   T   T
  0.1990772954929554  0.5971758227849406  0.1418299387236530   T   T   T
  0.2000000029901230  0.4000000059802389  0.0000000000000000   F   F   F
  0.0655394861599348  0.5335425817677901  0.0472331929810181   T   T   T
  0.3332405173298056  0.6665950158821730  0.0951107132048961   T   T   T
  0.1990297957014207  0.3982530563027424  0.1409045715637021   T   T   T
  0.4000000059592921  0.4000000059802389  0.0000000000000000   F   F   F
  0.6658979087283399  0.5330207601341215  0.0481226473803744   T   T   T
  0.5333247245842685  0.6662821618847374  0.0936526947486342   T   T   T
  0.3985656553360499  0.3986476190428121  0.1425869759319269   T   T   T
  0.4000000357444407  0.6000000238188363  0.0000000000000000   F   F   F
  0.6662966336322285  0.7322958720646895  0.0469953451011591   T   T   T
  0.5305269592093182  0.4649234028415989  0.0949153698120213   T   T   T
  0.4021822390972147  0.6015005624526495  0.1418238198153219   T   T   T
  0.6000000238133225  0.6000000238188363  0.0000000000000000   F   F   F
  0.4657138403155656  0.7342563898413133  0.0475226265947057   T   T   T
  0.7341276680530129  0.4654223889417253  0.0945134223005297   T   T   T
  0.6004693195232491  0.6002815641921586  0.1409832122701573   T   T   T
  0.6000000238287555  0.4000000059802389  0.0000000000000000   F   F   F
  0.4663257826971616  0.5320196503325221  0.0472348792607420   T   T   T
  0.7340459034640858  0.6675479521323737  0.0944265879870159   T   T   T
  0.6011004418164774  0.4013594864419971  0.1418163594786890   T   T   T
  0.8000000118976374  0.4000000059802389  0.0000000000000000   F   F   F
  0.9334313606138664  0.6663429531196243  0.0939283368233248   T   T   T
  0.8001238501754315  0.3982512584625582  0.1419085764588885   T   T   T
  0.8000000118822044  0.6000000238188363  0.0000000000000000   F   F   F
  0.9341553083499790  0.4691065729792143  0.0949213321464910   T   T   T
  0.8007884848648814  0.6003040687409253  0.1410023443559751   T   T   T
  0.8662820215059597  0.7318065086964438  0.0470241038423680   T   T   T
  0.8657230922915744  0.5323974514102829  0.0471799346746877   T   T   T
  0.0000000000419007  0.8000000119604849  0.0000000000000000   F   F   F
  0.2675802743378952  0.9337788389048498  0.0469862445006797   T   T   T
  0.0003138556813838  0.8018368412481323  0.1401720812222820   T   T   T
  0.1349247619380094  0.8679680963302019  0.0940688668231004   T   T   T
  0.3334056166204817  0.8666774465324920  0.0936556707670988   T   T   T
  0.2000000030110698  0.8000000119604849  0.0000000000000000   F   F   F
  0.0657676512807512  0.9321519131623504  0.0470711624288640   T   T   T
  0.1990306141787102  0.8003217774390379  0.1409560006550095   T   T   T
  0.4000000059802389  0.8000000119604849  0.0000000000000000   F   F   F
  0.6656586462013578  0.9313599241183184  0.0475872779157385   T   T   T
  0.3981887642765685  0.8004380366569492  0.1418696621142672   T   T   T
  0.5322286511574177  0.8665067334214100  0.0949646648893889   T   T   T
  0.7330684088521977  0.8648310388900668  0.0940955931042708   T   T   T
  0.6000000238497023  0.8000000119604849  0.0000000000000000   F   F   F
  0.4679970897124335  0.9342949269866878  0.0472378117996541   T   T   T
  0.6011195542935042  0.8003110898395320  0.1409715484016729   T   T   T
  0.8000000119185842  0.8000000119604849  0.0000000000000000   F   F   F
  0.8003033547242069  0.7995702189072631  0.1422091141642241   T   T   T
  0.9323859323318189  0.8661906860017723  0.0936204607097508   T   T   T
  0.8664609418372606  0.9342702844563746  0.0470773888032454   T   T   T
  0.1668637747114943  0.0631845827851976  0.5019058783412973   T   T   T
  0.1672480115397974  0.0632804582102224  0.3498553573609229   T   T   T
  0.1715801884437411  0.0640057221189778  0.1982913847533112   T   T   T
  0.3962549761080183  0.3333846635473776  0.5035614429519342   T   T   T
  0.3966638657419281  0.3334783222439270  0.3523469055827277   T   T   T
  0.4012277933310244  0.3370878237649038  0.2013127510679453   T   T   T
  0.1036565188344056  0.1669527013678405  0.4256788603092545   T   T   T
  0.1031986631208142  0.1664424896546208  0.2732799161603765   T   T   T
  0.0629364602541074  0.3974922566032859  0.4279775861460990   T   T   T
  0.0626645003203308  0.3982653818623447  0.2758521980051611   T   T   T
  0.1669630481202091  0.1036780031603044  0.4256814158670750   T   T   T
  0.1664501456351175  0.1032802603409664  0.2732830330982594   T   T   T
  0.3975014024350045  0.0629894282390779  0.4279888638261511   T   T   T
  0.3983392144533582  0.0626583119522905  0.2758470410139893   T   T   T
  0.0632273264378895  0.1668698325161913  0.5018884131954877   T   T   T
  0.0631882826008194  0.1672506895237760  0.3498372547799562   T   T   T
  0.0637316733529829  0.1714888119070821  0.1982196824297375   T   T   T
  0.3333952601720540  0.3962164037281042  0.5035638670126446   T   T   T
  0.3334467076674912  0.3967209909008673  0.3523525777378040   T   T   T
  0.3372074058152918  0.4011570099275161  0.2012601829653988   T   T   T
  0.1694980353032989  0.0002536217572171  0.4585467380001234   T   T   T
  0.1708785143186020  0.0000809352938589  0.3066510158916032   T   T   T
  0.2340660351844761  0.0000579312874223  0.4317593257405576   T   T   T
  0.2346457690276367  0.0000310720556200  0.2796501837991130   T   T   T
  0.3279110294230065  0.3278978653169133  0.4598893095814560   T   T   T
  0.3248096524476338  0.3249462773155045  0.3092082068725261   T   T   T
  0.2660487355695551  0.2660524919208385  0.4321941559698885   T   T   T
  0.2640741363030301  0.2641708487664047  0.2810815346094913   T   T   T
  0.0002380934576749  0.1694874224166156  0.4585328711962546   T   T   T
  0.9999158799600423  0.1707022405250171  0.3066345488145217   T   T   T
  0.0000239108857869  0.2340494872317223  0.4317474248840227   T   T   T
  0.9999017600533122  0.2345122810274489  0.2796461795245548   T   T   T
  0.3168656065807198  0.9994342848261297  0.5367749675808113   T   T   T
  0.3279152266299192  0.0000615918610194  0.3845668723435054   T   T   T
  0.3394289072301646  0.0001668513210760  0.2319367282590719   T   T   T
  0.2625235811331237  0.0000014442491292  0.5083986153058078   T   T   T
  0.2661315293120978  0.0001435764792106  0.3567513114860006   T   T   T
  0.2769123803218321  0.0002920861813536  0.2049713677327532   T   T   T
  0.1728948447986269  0.1728987464976726  0.5351044274171954   T   T   T
  0.1684423801827961  0.1685054265530681  0.3829844801828770   T   T   T
  0.1724622596483556  0.1725459975943338  0.2298554508956059   T   T   T
  0.2357632480112812  0.2357379346337964  0.5082131090137949   T   T   T
  0.2330421913958745  0.2331123521382139  0.3562367904717689   T   T   T
  0.2363405089922068  0.2363492121422581  0.2029540778976155   T   T   T
  0.9993786278408550  0.3168009057596137  0.5367605722863331   T   T   T
  0.0000710205034480  0.3279533410982509  0.3845541782210447   T   T   T
  0.0002318274284221  0.3393715992213373  0.2319446098120821   T   T   T
  0.9999910644355978  0.2624813218454065  0.5083852647326452   T   T   T
  0.0001214270280130  0.2661612338851924  0.3567381038660855   T   T   T
  0.0001567132801839  0.2768453406486913  0.2049634412585846   T   T   T
  0.6671230586156582  0.0631402887748749  0.5035047824582293   T   T   T
  0.6666978345503551  0.0632815834612117  0.3523496465783751   T   T   T
  0.6628086282536003  0.0637935553512960  0.2013378005898900   T   T   T
  0.8956896221838164  0.3319225680073430  0.5052154487500928   T   T   T
  0.8968230103736943  0.3338533608278453  0.3526605267290037   T   T   T
  0.8937193863182884  0.3425922289087353  0.1998498226332259   T   T   T
  0.4361662763777119  0.1042408876123844  0.5053159648829890   T   T   T
  0.4370898087189232  0.1033994644997023  0.3526650421981614   T   T   T
  0.4494450685086733  0.1066237975053994  0.1997729585231198   T   T   T
  0.6036866487714647  0.1671372707689613  0.4290010340430541   T   T   T
  0.6046305410425035  0.1661596460956929  0.2778845850677811   T   T   T
  0.5635044686782607  0.3961130316126003  0.4290478344542095   T   T   T
  0.5615612823225788  0.3951315731881735  0.2778834767121126   T   T   T
  0.4368708839899256  0.3325312053059761  0.4282554568442976   T   T   T
  0.4345582641294428  0.3305741996687672  0.2776759640619844   T   T   T
  0.6673514517734915  0.1041382165923324  0.4281870427795695   T   T   T
  0.6692576590836907  0.1037124820215070  0.2777803689419258   T   T   T
  0.8967197272818979  0.0633833908928096  0.4257429669611810   T   T   T
  0.8965921440748730  0.0632630735596109  0.2732465327280735   T   T   T
  0.5623892384801863  0.1664692482202597  0.5056820322472149   T   T   T
  0.5639694358783842  0.1665790134623748  0.3531013641248535   T   T   T
  0.5751281468832801  0.1715219261287189  0.2035238264013088   T   T   T
  0.8337018963393064  0.3961420291168665  0.5056502677185577   T   T   T
  0.8336261664004709  0.3975409162305823  0.3531174024595458   T   T   T
  0.8284293073712945  0.4029930629083012  0.2035795322319487   T   T   T
  0.6723712336959906  0.0000473359602253  0.4598292065295695   T   T   T
  0.6752144886208882  0.9998210150744171  0.3092849619985145   T   T   T
  0.7342079765587926  0.9999853130565484  0.4321504049096561   T   T   T
  0.7357781162945756  0.9997949275767866  0.2811180090247092   T   T   T
  0.8304867910091858  0.3300377854930403  0.4619096517002106   T   T   T
  0.8320248301079118  0.3320907352481015  0.3102209202661896   T   T   T
  0.7669651249094471  0.2670409099584177  0.4346714040223887   T   T   T
  0.7682161836867749  0.2681442219278338  0.2832123790821015   T   T   T
  0.4993897860485745  0.1692520526109575  0.4619342167858278   T   T   T
  0.5000237335572848  0.1678386542137176  0.3101814741478535   T   T   T
  0.5000277935243531  0.2328373625868494  0.4346989488232751   T   T   T
  0.4998504110057098  0.2314964325957263  0.2831513233424587   T   T   T
  0.8275366442393377  0.0008759674882270  0.5350833071598160   T   T   T
  0.8318306570676626  0.0002529131657667  0.3830826798023494   T   T   T
  0.8272219393377327  0.9999705054675303  0.2298335468653292   T   T   T
  0.7647483036705509  0.0003726560770687  0.5081427679058024   T   T   T
  0.7671137426875632  0.0001533210011431  0.3563317399595860   T   T   T
  0.7634019397886220  0.9998283713108336  0.2029074732849878   T   T   T
  0.6763353321892112  0.1692006060375206  0.5378608794509816   T   T   T
  0.6709119110262947  0.1707906054945525  0.3858887243440918   T   T   T
  0.6771359968167232  0.1716336149102631  0.2358577093658809   T   T   T
  0.7356441783191414  0.2349478444093407  0.5109155241417795   T   T   T
  0.7337902545690156  0.2336590860808840  0.3585720442180573   T   T   T
  0.7377623998830245  0.2376989280377373  0.2082547622204558   T   T   T
  0.4934004612914720  0.3240285701339971  0.5378749773550169   T   T   T
  0.4998320494560531  0.3289866461564444  0.3859296017279306   T   T   T
  0.4949493895547548  0.3229757065075205  0.2357223806436295   T   T   T
  0.4992590771333667  0.2643949639330643  0.5109287947471586   T   T   T
  0.4999128937007100  0.2663144737483449  0.3585751543586895   T   T   T
  0.5007353905124745  0.2627120832199452  0.2081107182416844   T   T   T
  0.1664711597075055  0.5623824545198701  0.5056699077252773   T   T   T
  0.1665767016900617  0.5640270275610177  0.3530682038656536   T   T   T
  0.1713240717993543  0.5748271830317293  0.2033368536400104   T   T   T
  0.3961926732939887  0.8337055616935842  0.5056510224415689   T   T   T
  0.3974857779938930  0.8335860893301188  0.3531199759381067   T   T   T
  0.4029160560464788  0.8285242470385299  0.2033933398465351   T   T   T
  0.3324936070547437  0.4368569952752637  0.4282642853651311   T   T   T
  0.3305606343205696  0.4347063095213102  0.2775982103176062   T   T   T
  0.1041194845797975  0.6673800946637272  0.4281972691377334   T   T   T
  0.1037025246241967  0.6692164066836028  0.2777055000699420   T   T   T
  0.0633709548500079  0.8967470255801899  0.4257567346299282   T   T   T
  0.0634690762706640  0.8967312137224610  0.2732630064129538   T   T   T
  0.1671092083665613  0.6037064793350169  0.4290108022408958   T   T   T
  0.1661314673257905  0.6045929562898493  0.2778083199247945   T   T   T
  0.3960651651531748  0.5634846276459697  0.4290560761134117   T   T   T
  0.3951765176879007  0.5616878924496262  0.2778073007259820   T   T   T
  0.0631657982779004  0.6671000119513906  0.5035044779347686   T   T   T
  0.0632823185697475  0.6667247897514343  0.3523432294236244   T   T   T
  0.0636598207215755  0.6627027563161150  0.2012739361092883   T   T   T
  0.3320283132338986  0.8957533658090213  0.5052279586466781   T   T   T
  0.3338100408131837  0.8967844644008593  0.3526595964790289   T   T   T
  0.3425530864585156  0.8939276694568150  0.1997683564177848   T   T   T
  0.1041920851336116  0.4361593689561118  0.5053051205628236   T   T   T
  0.1034173757515688  0.4371651047542855  0.3526251754568221   T   T   T
  0.1063707616925740  0.4490864218137745  0.1997095771664661   T   T   T
  0.1691737267073208  0.4993582656027726  0.4619264342909943   T   T   T
  0.1679561245225969  0.5000449888490550  0.3101499471805838   T   T   T
  0.2327769215895970  0.5000131667003416  0.4346978919028146   T   T   T
  0.2315478636446429  0.4999209689451973  0.2830916533291159   T   T   T
  0.3300640242314401  0.8305218557976630  0.4619096645763534   T   T   T
  0.3319615760518673  0.8319157430840605  0.3101962102741282   T   T   T
  0.2670397500783963  0.7669925023199369  0.4346750185019559   T   T   T
  0.2680272758207352  0.7681412532001346  0.2831730407965622   T   T   T
  0.9999921813273147  0.6723243564041894  0.4598304091265319   T   T   T
  0.9999607009247242  0.6753281970269001  0.3092815643054863   T   T   T
  0.9999605977210635  0.7342217427848183  0.4321599592040286   T   T   T
  0.9999895461409523  0.7359077343817688  0.2811091597268600   T   T   T
  0.3239340621692008  0.4932697858337391  0.5378748590918718   T   T   T
  0.3289264450635514  0.4998396619168517  0.3859335386686951   T   T   T
  0.3231757162357525  0.4953396012699045  0.2356075030654736   T   T   T
  0.2643576066121369  0.4991940325819257  0.5109279750859130   T   T   T
  0.2663098388466523  0.4999830842052830  0.3585761430832335   T   T   T
  0.2628202716114671  0.5007759847226012  0.2079749203542178   T   T   T
  0.1692600630172691  0.6763697348952959  0.5378564663730643   T   T   T
  0.1707879388847928  0.6709273010152330  0.3858940934864137   T   T   T
  0.1717903246963814  0.6769957227988854  0.2357195410522337   T   T   T
  0.2350060766464708  0.7357102258276313  0.5109141514025168   T   T   T
  0.2336491969541683  0.7337986747758265  0.3585740938463289   T   T   T
  0.2376845889808195  0.7376634953925532  0.2081014533257814   T   T   T
  0.0007688287572805  0.8274318965526177  0.5350808600748351   T   T   T
  0.0002620236894231  0.8318517347616066  0.3830941898762035   T   T   T
  0.0002121144268585  0.8272958680567157  0.2298500960282226   T   T   T
  0.0003354286708941  0.7646718750645007  0.5081402397288386   T   T   T
  0.0002000829866589  0.7671833708056610  0.3563384920718988   T   T   T
  0.9999719101796885  0.7634354295767736  0.2029197417927620   T   T   T
  0.6683088677743427  0.5638696307255771  0.5052945231009431   T   T   T
  0.6663178338639426  0.5630860946147038  0.3527616481811080   T   T   T
  0.6580560123048400  0.5520569855691377  0.2001720603082688   T   T   T
  0.8964587359695102  0.8334806784734639  0.5020566869381540   T   T   T
  0.8964065402715633  0.8332876355880217  0.3500238759462775   T   T   T
  0.8929328434138739  0.8288132336204797  0.1982635126614625   T   T   T
  0.4376419423571249  0.6043346150224096  0.5057012796246312   T   T   T
  0.4361802653195923  0.6026137889495331  0.3532016735193935   T   T   T
  0.4264310862143930  0.5971682436373769  0.2033746552511673   T   T   T
  0.8325739714133960  0.4364530152285226  0.4289982447294989   T   T   T
  0.8334475022516017  0.4382507187558460  0.2779298732311446   T   T   T
  0.6026099465253054  0.6656643748110014  0.4280808181094145   T   T   T
  0.6020189824847151  0.6648732012034060  0.2761158629783509   T   T   T
  0.5631475614600774  0.8956191577686283  0.4282356605841642   T   T   T
  0.5651841783386544  0.8958271781217135  0.2777319463359618   T   T   T
  0.4364638375435064  0.8325653278797702  0.4290101685965482   T   T   T
  0.4381339855003930  0.8333989380994709  0.2778470103331330   T   T   T
  0.6657107547873693  0.6026048013140581  0.4280826311290369   T   T   T
  0.6648448755546923  0.6019575517630855  0.2761167054038012   T   T   T
  0.8956011498775140  0.5631314931520635  0.4282206446814598   T   T   T
  0.8958790079982180  0.5653370906038262  0.2778038895051367   T   T   T
  0.5638599781794440  0.6682264062256351  0.5053000675036898   T   T   T
  0.5630901614390353  0.6663789789181394  0.3527437721276812   T   T   T
  0.5523981047300950  0.6580684760310973  0.2000561034819555   T   T   T
  0.8335062595775327  0.8964752710882138  0.5020610803193009   T   T   T
  0.8332569767429945  0.8963949996838636  0.3500135150963075   T   T   T
  0.8289207059809485  0.8927070167044704  0.1982155816124305   T   T   T
  0.6044160524887658  0.4376499403833307  0.5056966607058442   T   T   T
  0.6025657609406494  0.4361701291352418  0.3532216110154138   T   T   T
  0.5971568700377077  0.4261578252806402  0.2035707444538843   T   T   T
  0.6700034256307603  0.5005265723580337  0.4619648852729554   T   T   T
  0.6675832267723081  0.4997433319249112  0.3103033101072725   T   T   T
  0.7328029616696412  0.4999137287203368  0.4347007517245771   T   T   T
  0.7315185954386720  0.4999171229591610  0.2832890242833059   T   T   T
  0.8307959404364667  0.8308012638840907  0.4586808457835900   T   T   T
  0.8302105565237170  0.8301319039182573  0.3068661348674766   T   T   T
  0.7661339985942348  0.7661264486316668  0.4318938634997949   T   T   T
  0.7661552666684130  0.7660680371174280  0.2799493202501822   T   T   T
  0.5005307411479123  0.6699452942186710  0.4619674808298271   T   T   T
  0.4997656082245285  0.6677323317885140  0.3102698204146321   T   T   T
  0.4999333574988682  0.7327770813887327  0.4347084851748946   T   T   T
  0.4999005132237926  0.7315747233234262  0.2832367255736372   T   T   T
  0.8313842071573347  0.5072651578625056  0.5379026422470830   T   T   T
  0.8292714892111945  0.5001660221553337  0.3859103741419005   T   T   T
  0.8281811823059044  0.5049497981562823  0.2358868787885910   T   T   T
  0.7656249710539029  0.5011031272582471  0.5109793740002218   T   T   T
  0.7664446658121520  0.5001961346822910  0.3585976981605086   T   T   T
  0.7621610748461194  0.4998000697164073  0.2083079533070133   T   T   T
  0.6826620760676079  0.6825463946987966  0.5368015534084947   T   T   T
  0.6723584788017902  0.6723774514255396  0.3846643039031150   T   T   T
  0.6619934635255262  0.6620469010265921  0.2323294613390416   T   T   T
  0.7375884985578551  0.7375818024790703  0.5084832351450572   T   T   T
  0.7342013921265576  0.7342095800906208  0.3568651073570805   T   T   T
  0.7243758452128333  0.7243016574366195  0.2052600138733567   T   T   T
  0.5072749038279198  0.8313495736609156  0.5379007440178398   T   T   T
  0.5001615007676037  0.8292380478627592  0.3859307345671468   T   T   T
  0.5046872799482998  0.8278882772225984  0.2357552279910564   T   T   T
  0.5011130400141113  0.7655552985294918  0.5109841311910586   T   T   T
  0.5001604776585395  0.7664294716497793  0.3586098887394797   T   T   T
  0.4997868735607938  0.7621176345884777  0.2081469180798550   T   T   T
  0.9373106207330437  0.1038708405971107  0.5018764989915567   T   T   T
  0.9369997183163221  0.1041950551837587  0.3498865960485986   T   T   T
  0.9358647322807130  0.1076748978256745  0.1982770336686315   T   T   T
  0.9367793846980561  0.3343598599515474  0.4279686607717181   T   T   T
  0.9369505916722503  0.3354039180509503  0.2758399945342163   T   T   T
  0.9375143439756215  0.6042753280947153  0.5035450613062409   T   T   T
  0.9368063228174250  0.6035179138038629  0.3523641594460614   T   T   T
  0.9356281301022520  0.5985567923903616  0.2013692753921674   T   T   T
  0.9367737532952631  0.8334470621050940  0.4257852665962716   T   T   T
  0.9371463195665015  0.8337455982599877  0.2733437093828144   T   T   T
  0.3343900412398995  0.9368256091383032  0.4279713144486550   T   T   T
  0.3353846870532564  0.9369353308020223  0.2758344588725947   T   T   T
  0.1038909269459296  0.9372628471502651  0.5018894958184745   T   T   T
  0.1042065057119714  0.9370900863478795  0.3498982329982994   T   T   T
  0.1078403606439835  0.9361328159026812  0.1982733904290157   T   T   T
  0.8334153099436890  0.9367809738837352  0.4257713444573454   T   T   T
  0.8336971941222728  0.9369533687793847  0.2733453449259429   T   T   T
  0.6043387286128095  0.9374911100179517  0.5035357597438477   T   T   T
  0.6034558176970606  0.9368014134962337  0.3523850622696472   T   T   T
  0.5985348577020702  0.9357541953547042  0.2013063635102554   T   T   T
  0.1681764798168857  0.0001752154981034  0.4383483457653767   T   T   T
  0.1690153835254122  0.0000667439902386  0.2864396954150976   T   T   T
  0.1678623468889526  0.0002440149640108  0.4942928414969856   T   T   T
  0.1692403783485901  0.0001640582316327  0.3426584907751078   T   T   T
  0.1757496377282735  0.0001513977878531  0.1928390011979673   T   T   T
  0.3308229924018633  0.3308239526101602  0.4397191585958140   T   T   T
  0.3281820279707617  0.3283310507554802  0.2890189528908209   T   T   T
  0.3331568128639759  0.3331272501222813  0.4956258295658316   T   T   T
  0.3329107524709585  0.3329669030201430  0.3446876680375937   T   T   T
  0.3409295055624781  0.3408097942824639  0.1925994093578822   T   T   T
  0.0001420308990205  0.1681627859632400  0.4383342563671278   T   T   T
  0.9999042693440501  0.1688490297120637  0.2864231067837721   T   T   T
  0.0002785554093450  0.1678504193061698  0.4942760668815467   T   T   T
  0.0000626173770186  0.1692242408907561  0.3426388731651286   T   T   T
  0.9998170015762042  0.1756116000110097  0.1928241131295181   T   T   T
  0.3263867464883177  0.9998570158915570  0.5170417964128617   T   T   T
  0.3307926278108511  0.0001195679301063  0.3643766384365321   T   T   T
  0.3420536893332482  0.0003061261009734  0.2117230486123560   T   T   T
  0.3339765032661788  0.9999345609895514  0.4201843291820992   T   T   T
  0.3352767568595780  0.9998355131048342  0.2678023149036903   T   T   T
  0.1696788786138299  0.1696635590672315  0.5151794950703419   T   T   T
  0.1670556360452480  0.1671237035847639  0.3627572625924884   T   T   T
  0.1706904056865355  0.1707708414574753  0.2096230813427056   T   T   T
  0.1686114793294564  0.1686210402093451  0.4184844932222944   T   T   T
  0.1680343356013410  0.1680819372950353  0.2660506431734007   T   T   T
  0.9998134926549440  0.3263316555330746  0.5170286760434664   T   T   T
  0.0001551033722649  0.3308405629112414  0.3643651149082388   T   T   T
  0.0003558307628992  0.3420469161758959  0.2117315011652678   T   T   T
  0.9998836658148988  0.3339573107061824  0.4201783427673860   T   T   T
  0.9998193053335100  0.3352135635483080  0.2678125817068917   T   T   T
  0.6693746979781992  0.9999038037792047  0.4396558804887434   T   T   T
  0.6716757956872286  0.9997237108057888  0.2890978373252793   T   T   T
  0.6673438328190215  0.0002916154252119  0.4955640633691871   T   T   T
  0.6672537039498607  0.0000101301791418  0.3447298052061640   T   T   T
  0.6587486706845382  0.9997256019632346  0.1925732213313935   T   T   T
  0.8326093080379593  0.3322364182985567  0.4417365764822563   T   T   T
  0.8337611561528391  0.3340558682045156  0.2900024693914887   T   T   T
  0.8317101281901387  0.3318546092974728  0.4979975594449968   T   T   T
  0.8317314192802456  0.3326774089117066  0.3457683783002565   T   T   T
  0.8251556060256888  0.3384357876019735  0.1953563095596280   T   T   T
  0.4995038228538249  0.1671322326581333  0.4417601441814796   T   T   T
  0.5001478694505366  0.1659450810556251  0.2899676050375248   T   T   T
  0.4999352217289044  0.1682256943505109  0.4980515398075198   T   T   T
  0.5009961722367535  0.1684506850179446  0.3457463514741193   T   T   T
  0.5140337631566467  0.1749999032513543  0.1952518391889626   T   T   T
  0.8307917012147144  0.0004226993652665  0.5151751268116982   T   T   T
  0.8331862256324101  0.0003264064829267  0.3628544462394103   T   T   T
  0.8291006053339700  0.0000760962150750  0.2096004428130840   T   T   T
  0.8318175838355586  0.0000510886977949  0.4185398397056375   T   T   T
  0.8318341301307015  0.9999402106049402  0.2660384162348421   T   T   T
  0.6701597219696325  0.1684515423995592  0.5180233292500844   T   T   T
  0.6688922866046951  0.1679440516333628  0.3656859108810124   T   T   T
  0.6757160759703780  0.1691964854249122  0.2156450263551974   T   T   T
  0.6687085987681129  0.1696500468301920  0.4215632556801125   T   T   T
  0.6704392128860945  0.1688664026984412  0.2709478224474253   T   T   T
  0.4984981305109386  0.3300218820575225  0.5180325386649969   T   T   T
  0.4990501578927606  0.3311609133310895  0.3657257321932974   T   T   T
  0.4941198525919006  0.3246144347717035  0.2155110454166049   T   T   T
  0.5009730997141517  0.3310954425209971  0.4216189130517947   T   T   T
  0.4985552375279383  0.3294140499602776  0.2708670513882936   T   T   T
  0.1670754666915784  0.4994948251924285  0.4417543524965239   T   T   T
  0.1659793925679054  0.5001432536972104  0.2899326192149587   T   T   T
  0.1681865531582289  0.4999097016926299  0.4980410300327733   T   T   T
  0.1684669530068632  0.5010702240484193  0.3457067311454622   T   T   T
  0.1746448909462401  0.5136455994202507  0.1950555617267824   T   T   T
  0.3322573207126069  0.8326349102204347  0.4417354458880851   T   T   T