au_111_4_layers_5x5_with_h2o_6_bilayers_
   1.00000000000000     
    14.6976995467999991    0.0000000000000000    0.0000000000000000
    -7.3488497733999996   12.7285811846999994    0.0000000000000000
     0.0000000000000000    0.0000000000000000   49.2004013061999999
   Au   H    O 
   100   240   120
Selective dynamics
Direct
  0.0000000000000000  0.0000000000000000  0.0000000000000000   F   F   F
  0.2681167530011112  0.1344519815902193  0.0470344592105654   T   T   T
  0.1316613715739949  0.2666505935900875  0.0940326339227740   T   T   T
 -0.0001572573964299 -0.0001415033997666  0.1403762371668557   T   T   T
  0.9999999999764526  0.2000000029901230  0.0000000000000000   F   F   F
  0.2656971459680023  0.3342578841942990  0.0475694376105904   T   T   T
  0.1335552536195968  0.0659651693925940  0.0936629784324440   T   T   T
  0.9992368027283559  0.1994372116299125  0.1421984701524956   T   T   T
  0.2000000030136633  0.2000000029901230  0.0000000000000000   F   F   F
  0.0659301983956848  0.3336542798633622  0.0469757781493543   T   T   T
  0.3320739460220643  0.0660029144531926  0.0944065968696870   T   T   T
  0.1978599651003735  0.1982874379703324  0.1401762416033866   T   T   T
  0.2000000029691691  0.0000000000000000  0.0000000000000000   F   F   F
  0.0676624158463524  0.1333314839869510  0.0470836670637431   T   T   T
  0.3334621917980504  0.2669617746272522  0.0939173201390965   T   T   T
  0.2001144694228773  0.0004521295162274  0.1422072888547697   T   T   T
  0.4000000059383453  0.0000000000000000  0.0000000000000000   F   F   F
  0.6666373281768169  0.1341751789937971  0.0471579576452748   T   T   T
  0.5341186651374299  0.2682885770525892  0.0944723222797975   T   T   T
  0.3992186200096086 -0.0003898443257848  0.1409754193474099   T   T   T
  0.4000000059828395  0.2000000029901230  0.0000000000000000   F   F   F
  0.6666525409186007  0.3333148819593327  0.0471515508508267   T   T   T
  0.5346548035164808  0.0653056216419621  0.0949012124616166   T   T   T
  0.3990312507235745  0.2000296455598542  0.1409685251722323   T   T   T
  0.6000000238523029  0.2000000029901230  0.0000000000000000   F   F   F
  0.4674972614663238  0.3333552567232516  0.0471466145489453   T   T   T
  0.7327387540461904  0.0663414485688095  0.0939211072083767   T   T   T
  0.5977848244876142  0.1992962220708556  0.1418967109247148   T   T   T
  0.6000000238758432  0.0000000000000000  0.0000000000000000   F   F   F
  0.4668484010413138  0.1327652123136553  0.0480886707882167   T   T   T
  0.7310329906418693  0.2654801366042950  0.0945442305771848   T   T   T
  0.6009153868258124 -0.0002650854722629  0.1425882660836158   T   T   T
  0.8000000119447250  0.0000000000000000  0.0000000000000000   F   F   F
  0.9334496046908524  0.2657927549519652  0.0944259891369687   T   T   T
  0.8013798049533034  0.9993916138088111  0.1401860813746382   T   T   T
  0.7999999523200216  0.2000000029901230  0.0000000000000000   F   F   F
  0.9336190505832067  0.0674618417918338  0.0936521298207756   T   T   T
  0.7994330409752652  0.1987180834035260  0.1409908675532510   T   T   T
  0.8669143387174213  0.3339130428889920  0.0481238308441602   T   T   T
  0.8654285323495035  0.1335939624980108  0.0470262922594352   T   T   T
  0.0000000000209468  0.4000000059802389  0.0000000000000000   F   F   F
  0.2685163399618298  0.5342422130162851  0.0475362624121731   T   T   T
  0.1331385248103678  0.6652718674407753  0.0949502115387269   T   T   T
 -0.0002766612824339  0.3992636473700645  0.1409839033118849   T   T   T
  0.0000000000055138  0.6000000238188363  0.0000000000000000   F   F   F
  0.2656285050073625  0.7313451870002472  0.0475120200723201   T   T   T
  0.1328075915513775  0.4663310773486283  0.0936565999342944   T   T   T
 -0.0001549148192107  0.6008513232655714  0.1425949182368942   T   T   T
  0.2000000178749772  0.6000000238188363  0.0000000000000000   F   F   F
  0.0684365778160078  0.7340829652912323  0.0475780007945225   T   T   T
  0.3342925033813626  0.4676517101549454  0.0949455365144157   T   T   T
  0.1990772954929521  0.5971758227849402  0.1418299387236557   T   T   T
  0.2000000029901230  0.4000000059802389  0.0000000000000000   F   F   F
  0.0655394861599381  0.5335425817677918  0.0472331929810208   T   T   T
  0.3332405173298060  0.6665950158821760  0.0951107132048981   T   T   T
  0.1990297957014227  0.3982530563027417  0.1409045715637054   T   T   T
  0.4000000059592921  0.4000000059802389  0.0000000000000000   F   F   F
  0.6658979087283381  0.5330207601341191  0.0481226473803712   T   T   T
  0.5333247245842664  0.6662821618847367  0.0936526947486371   T   T   T
  0.3985656553360510  0.3986476190428091  0.1425869759319252   T   T   T
  0.4000000357444407  0.6000000238188363  0.0000000000000000   F   F   F
  0.6662966336322307  0.7322958720646903  0.0469953451011568   T   T   T
  0.5305269592093202  0.4649234028416024  0.0949153698120238   T   T   T
  0.4021822390972113  0.6015005624526477  0.1418238198153229   T   T   T
  0.6000000238133225  0.6000000238188363  0.0000000000000000   F   F   F
  0.4657138403155652  0.7342563898413146  0.0475226265947050   T   T   T
  0.7341276680530099  0.4654223889417254  0.0945134223005294   T   T   T
  0.6004693195232504  0.6002815641921587  0.1409832122701577   T   T   T
  0.6000000238287555  0.4000000059802389  0.0000000000000000   F   F   F
  0.4663257826971624  0.5320196503325190  0.0472348792607450   T   T   T
  0.7340459034640873  0.6675479521323734  0.0944265879870158   T   T   T
  0.6011004418164757  0.4013594864419950  0.1418163594786899   T   T   T
  0.8000000118976374  0.4000000059802389  0.0000000000000000   F   F   F
  0.9334313606138696  0.6663429531196253  0.0939283368233221   T   T   T
  0.8001238501754305  0.3982512584625580  0.1419085764588885   T   T   T
  0.8000000118822044  0.6000000238188363  0.0000000000000000   F   F   F
  0.9341553083499802  0.4691065729792133  0.0949213321464943   T   T   T
  0.8007884848648834  0.6003040687409223  0.1410023443559780   T   T   T
  0.8662820215059566  0.7318065086964453  0.0470241038423664   T   T   T
  0.8657230922915761  0.5323974514102798  0.0471799346746876   T   T   T
  0.0000000000419007  0.8000000119604849  0.0000000000000000   F   F   F
  0.2675802743378944  0.9337788389048501  0.0469862445006813   T   T   T
  0.0003138556813810  0.8018368412481317  0.1401720812222841   T   T   T
  0.1349247619380095  0.8679680963302048  0.0940688668231008   T   T   T
  0.3334056166204785  0.8666774465324939  0.0936556707670982   T   T   T
  0.2000000030110698  0.8000000119604849  0.0000000000000000   F   F   F
  0.0657676512807499  0.9321519131623481  0.0470711624288631   T   T   T
  0.1990306141787106  0.8003217774390375  0.1409560006550103   T   T   T
  0.4000000059802389  0.8000000119604849  0.0000000000000000   F   F   F
  0.6656586462013588  0.9313599241183165  0.0475872779157405   T   T   T
  0.3981887642765689  0.8004380366569479  0.1418696621142694   T   T   T
  0.5322286511574209  0.8665067334214075  0.0949646648893913   T   T   T
  0.7330684088521966  0.8648310388900694  0.0940955931042743   T   T   T
  0.6000000238497023  0.8000000119604849  0.0000000000000000   F   F   F
  0.4679970897124319  0.9342949269866896  0.0472378117996537   T   T   T
  0.6011195542935036  0.8003110898395337  0.1409715484016713   T   T   T
  0.8000000119185842  0.8000000119604849  0.0000000000000000   F   F   F
  0.8003033547242044  0.7995702189072598  0.1422091141642213   T   T   T
  0.9323859323318194  0.8661906860017753  0.0936204607097532   T   T   T
  0.8664609418372631  0.9342702844563757  0.0470773888032441   T   T   T
  0.1668637747114911  0.0631845827851979  0.5019058783412969   T   T   T
  0.1672480115397997  0.0632804582102249  0.3498553573609235   T   T   T
  0.1715801884437402  0.0640057221189755  0.1982913847533122   T   T   T
  0.3962549761080176  0.3333846635473752  0.5035614429519315   T   T   T
  0.3966638657419285  0.3334783222439305  0.3523469055827282   T   T   T
  0.4012277933310242  0.3370878237649043  0.2013127510679453   T   T   T
  0.1036565188344083  0.1669527013678440  0.4256788603092578   T   T   T
  0.1031986631208160  0.1664424896546184  0.2732799161603777   T   T   T
  0.0629364602541082  0.3974922566032848  0.4279775861460993   T   T   T
  0.0626645003203343  0.3982653818623416  0.2758521980051584   T   T   T
  0.1669630481202124  0.1036780031603058  0.4256814158670715   T   T   T
  0.1664501456351168  0.1032802603409660  0.2732830330982591   T   T   T
  0.3975014024350080  0.0629894282390772  0.4279888638261509   T   T   T
  0.3983392144533580  0.0626583119522919  0.2758470410139858   T   T   T
  0.0632273264378897  0.1668698325161897  0.5018884131954846   T   T   T
  0.0631882826008226  0.1672506895237766  0.3498372547799579   T   T   T
  0.0637316733529815  0.1714888119070820  0.1982196824297400   T   T   T
  0.3333952601720529  0.3962164037281076  0.5035638670126419   T   T   T
  0.3334467076674912  0.3967209909008667  0.3523525777378047   T   T   T
  0.3372074058152945  0.4011570099275129  0.2012601829653980   T   T   T
  0.1694980353032983  0.0002536217572146  0.4585467380001206   T   T   T
  0.1708785143186032  0.0000809352938569  0.3066510158916009   T   T   T
  0.2340660351844744  0.0000579312874227  0.4317593257405579   T   T   T
  0.2346457690276355  0.0000310720556224  0.2796501837991136   T   T   T
  0.3279110294230046  0.3278978653169133  0.4598893095814548   T   T   T
  0.3248096524476313  0.3249462773155031  0.3092082068725251   T   T   T
  0.2660487355695568  0.2660524919208382  0.4321941559698899   T   T   T
  0.2640741363030293  0.2641708487664029  0.2810815346094880   T   T   T
  0.0002380934576740  0.1694874224166169  0.4585328711962517   T   T   T
 -0.0000841200399555  0.1707022405250199  0.3066345488145194   T   T   T
  0.0000239108857844  0.2340494872317256  0.4317474248840263   T   T   T
 -0.0000982399466905  0.2345122810274477  0.2796461795245580   T   T   T
  0.3168656065807203 -0.0005657151738732  0.5367749675808087   T   T   T
  0.3279152266299163  0.0000615918610200  0.3845668723435079   T   T   T
  0.3394289072301646  0.0001668513210787  0.2319367282590740   T   T   T
  0.2625235811331254  0.0000014442491281  0.5083986153058077   T   T   T
  0.2661315293120983  0.0001435764792077  0.3567513114860001   T   T   T
  0.2769123803218295  0.0002920861813524  0.2049713677327536   T   T   T
  0.1728948447986297  0.1728987464976708  0.5351044274171972   T   T   T
  0.1684423801827958  0.1685054265530666  0.3829844801828776   T   T   T
  0.1724622596483546  0.1725459975943363  0.2298554508956070   T   T   T
  0.2357632480112794  0.2357379346337983  0.5082131090137947   T   T   T
  0.2330421913958759  0.2331123521382109  0.3562367904717670   T   T   T
  0.2363405089922052  0.2363492121422574  0.2029540778976170   T   T   T
 -0.0006213721591435  0.3168009057596157  0.5367605722863313   T   T   T
  0.0000710205034500  0.3279533410982516  0.3845541782210435   T   T   T
  0.0002318274284210  0.3393715992213338  0.2319446098120801   T   T   T
 -0.0000089355644008  0.2624813218454052  0.5083852647326458   T   T   T
  0.0001214270280165  0.2661612338851951  0.3567381038660836   T   T   T
  0.0001567132801824  0.2768453406486933  0.2049634412585811   T   T   T
  0.6671230586156569  0.0631402887748726  0.5035047824582314   T   T   T
  0.6666978345503578  0.0632815834612151  0.3523496465783740   T   T   T
  0.6628086282535998  0.0637935553512971  0.2013378005898902   T   T   T
  0.8956896221838184  0.3319225680073428  0.5052154487500933   T   T   T
  0.8968230103736934  0.3338533608278420  0.3526605267290056   T   T   T
  0.8937193863182915  0.3425922289087348  0.1998498226332282   T   T   T
  0.4361662763777114  0.1042408876123866  0.5053159648829856   T   T   T
  0.4370898087189237  0.1033994644997014  0.3526650421981609   T   T   T
  0.4494450685086712  0.1066237975054028  0.1997729585231201   T   T   T
  0.6036866487714631  0.1671372707689640  0.4290010340430560   T   T   T
  0.6046305410425048  0.1661596460956905  0.2778845850677830   T   T   T
  0.5635044686782616  0.3961130316126034  0.4290478344542094   T   T   T
  0.5615612823225814  0.3951315731881739  0.2778834767121123   T   T   T
  0.4368708839899291  0.3325312053059729  0.4282554568442948   T   T   T
  0.4345582641294412  0.3305741996687668  0.2776759640619853   T   T   T
  0.6673514517734948  0.1041382165923308  0.4281870427795709   T   T   T
  0.6692576590836925  0.1037124820215078  0.2777803689419289   T   T   T
  0.8967197272818970  0.0633833908928102  0.4257429669611817   T   T   T
  0.8965921440748720  0.0632630735596081  0.2732465327280736   T   T   T
  0.5623892384801843  0.1664692482202590  0.5056820322472115   T   T   T
  0.5639694358783852  0.1665790134623729  0.3531013641248553   T   T   T
  0.5751281468832827  0.1715219261287169  0.2035238264013083   T   T   T
  0.8337018963393054  0.3961420291168646  0.5056502677185567   T   T   T
  0.8336261664004735  0.3975409162305844  0.3531174024595491   T   T   T
  0.8284293073712955  0.4029930629082983  0.2035795322319465   T   T   T
  0.6723712336959886  0.0000473359602275  0.4598292065295695   T   T   T
  0.6752144886208874  0.9998210150744179  0.3092849619985172   T   T   T
  0.7342079765587890 -0.0000146869434548  0.4321504049096594   T   T   T
  0.7357781162945780  0.9997949275767837  0.2811180090247058   T   T   T
  0.8304867910091833  0.3300377854930427  0.4619096517002119   T   T   T
  0.8320248301079118  0.3320907352481042  0.3102209202661868   T   T   T
  0.7669651249094503  0.2670409099584174  0.4346714040223895   T   T   T
  0.7682161836867756  0.2681442219278320  0.2832123790821026   T   T   T
  0.4993897860485721  0.1692520526109594  0.4619342167858280   T   T   T
  0.5000237335572815  0.1678386542137153  0.3101814741478525   T   T   T
  0.5000277935243521  0.2328373625868499  0.4346989488232734   T   T   T
  0.4998504110057114  0.2314964325957252  0.2831513233424620   T   T   T
  0.8275366442393405  0.0008759674882266  0.5350833071598168   T   T   T
  0.8318306570676632  0.0002529131657658  0.3830826798023524   T   T   T
  0.8272219393377334 -0.0000294945324704  0.2298335468653273   T   T   T
  0.7647483036705484  0.0003726560770656  0.5081427679058036   T   T   T
  0.7671137426875611  0.0001533210011418  0.3563317399595873   T   T   T
  0.7634019397886205 -0.0001716286891684  0.2029074732849891   T   T   T
  0.6763353321892110  0.1692006060375219  0.5378608794509820   T   T   T
  0.6709119110262945  0.1707906054945521  0.3858887243440938   T   T   T
  0.6771359968167233  0.1716336149102610  0.2358577093658834   T   T   T
  0.7356441783191415  0.2349478444093397  0.5109155241417824   T   T   T
  0.7337902545690161  0.2336590860808825  0.3585720442180578   T   T   T
  0.7377623998830223  0.2376989280377390  0.2082547622204591   T   T   T
  0.4934004612914688  0.3240285701339957  0.5378749773550183   T   T   T
  0.4998320494560524  0.3289866461564436  0.3859296017279296   T   T   T
  0.4949493895547526  0.3229757065075209  0.2357223806436292   T   T   T
  0.4992590771333637  0.2643949639330633  0.5109287947471620   T   T   T
  0.4999128937007069  0.2663144737483438  0.3585751543586872   T   T   T
  0.5007353905124766  0.2627120832199475  0.2081107182416844   T   T   T
  0.1664711597075064  0.5623824545198682  0.5056699077252756   T   T   T
  0.1665767016900615  0.5640270275610144  0.3530682038656507   T   T   T
  0.1713240717993523  0.5748271830317274  0.2033368536400080   T   T   T
  0.3961926732939901  0.8337055616935872  0.5056510224415705   T   T   T
  0.3974857779938951  0.8335860893301196  0.3531199759381060   T   T   T
  0.4029160560464811  0.8285242470385324  0.2033933398465378   T   T   T
  0.3324936070547449  0.4368569952752635  0.4282642853651303   T   T   T
  0.3305606343205663  0.4347063095213123  0.2775982103176085   T   T   T
  0.1041194845797984  0.6673800946637241  0.4281972691377355   T   T   T
  0.1037025246241946  0.6692164066836046  0.2777055000699403   T   T   T
  0.0633709548500099  0.8967470255801917  0.4257567346299286   T   T   T
  0.0634690762706636  0.8967312137224575  0.2732630064129511   T   T   T
  0.1671092083665635  0.6037064793350158  0.4290108022408993   T   T   T
  0.1661314673257913  0.6045929562898514  0.2778083199247962   T   T   T
  0.3960651651531723  0.5634846276459723  0.4290560761134086   T   T   T
  0.3951765176879012  0.5616878924496279  0.2778073007259819   T   T   T
  0.0631657982779037  0.6671000119513931  0.5035044779347713   T   T   T
  0.0632823185697446  0.6667247897514375  0.3523432294236272   T   T   T
  0.0636598207215782  0.6627027563161184  0.2012739361092852   T   T   T
  0.3320283132338957  0.8957533658090189  0.5052279586466802   T   T   T
  0.3338100408131846  0.8967844644008627  0.3526595964790293   T   T   T
  0.3425530864585185  0.8939276694568151  0.1997683564177873   T   T   T
  0.1041920851336148  0.4361593689561092  0.5053051205628238   T   T   T
  0.1034173757515717  0.4371651047542860  0.3526251754568209   T   T   T
  0.1063707616925775  0.4490864218137767  0.1997095771664654   T   T   T
  0.1691737267073230  0.4993582656027746  0.4619264342909915   T   T   T
  0.1679561245225989  0.5000449888490569  0.3101499471805871   T   T   T
  0.2327769215895949  0.5000131667003406  0.4346978919028157   T   T   T
  0.2315478636446399  0.4999209689451943  0.2830916533291172   T   T   T
  0.3300640242314383  0.8305218557976644  0.4619096645763518   T   T   T
  0.3319615760518689  0.8319157430840617  0.3101962102741276   T   T   T
  0.2670397500783948  0.7669925023199360  0.4346750185019549   T   T   T
  0.2680272758207359  0.7681412532001352  0.2831730407965618   T   T   T
 -0.0000078186726818  0.6723243564041874  0.4598304091265300   T   T   T
 -0.0000392990752729  0.6753281970269029  0.3092815643054888   T   T   T
 -0.0000394022789350  0.7342217427848152  0.4321599592040319   T   T   T
 -0.0000104538590489  0.7359077343817680  0.2811091597268625   T   T   T
  0.3239340621691994  0.4932697858337425  0.5378748590918706   T   T   T
  0.3289264450635524  0.4998396619168551  0.3859335386686945   T   T   T
  0.3231757162357514  0.4953396012699048  0.2356075030654721   T   T   T
  0.2643576066121355  0.4991940325819293  0.5109279750859147   T   T   T
  0.2663098388466550  0.4999830842052804  0.3585761430832303   T   T   T
  0.2628202716114649  0.5007759847226045  0.2079749203542148   T   T   T
  0.1692600630172714  0.6763697348952953  0.5378564663730676   T   T   T
  0.1707879388847927  0.6709273010152328  0.3858940934864156   T   T   T
  0.1717903246963812  0.6769957227988841  0.2357195410522320   T   T   T
  0.2350060766464702  0.7357102258276319  0.5109141514025143   T   T   T
  0.2336491969541718  0.7337986747758294  0.3585740938463274   T   T   T
  0.2376845889808205  0.7376634953925516  0.2081014533257838   T   T   T
  0.0007688287572775  0.8274318965526174  0.5350808600748321   T   T   T
  0.0002620236894197  0.8318517347616086  0.3830941898762028   T   T   T
  0.0002121144268617  0.8272958680567124  0.2298500960282200   T   T   T
  0.0003354286708949  0.7646718750645026  0.5081402397288385   T   T   T
  0.0002000829866601  0.7671833708056583  0.3563384920719005   T   T   T
 -0.0000280898203088  0.7634354295767700  0.2029197417927601   T   T   T
  0.6683088677743459  0.5638696307255804  0.5052945231009413   T   T   T
  0.6663178338639459  0.5630860946147028  0.3527616481811076   T   T   T
  0.6580560123048412  0.5520569855691407  0.2001720603082656   T   T   T
  0.8964587359695074  0.8334806784734657  0.5020566869381569   T   T   T
  0.8964065402715666  0.8332876355880230  0.3500238759462777   T   T   T
  0.8929328434138725  0.8288132336204823  0.1982635126614631   T   T   T
  0.4376419423571226  0.6043346150224095  0.5057012796246285   T   T   T
  0.4361802653195906  0.6026137889495330  0.3532016735193926   T   T   T
  0.4264310862143919  0.5971682436373787  0.2033746552511649   T   T   T
  0.8325739714133933  0.4364530152285254  0.4289982447294953   T   T   T
  0.8334475022516050  0.4382507187558443  0.2779298732311431   T   T   T
  0.6026099465253033  0.6656643748110029  0.4280808181094121   T   T   T
  0.6020189824847176  0.6648732012034053  0.2761158629783528   T   T   T
  0.5631475614600755  0.8956191577686291  0.4282356605841634   T   T   T
  0.5651841783386513  0.8958271781217165  0.2777319463359622   T   T   T
  0.4364638375435081  0.8325653278797701  0.4290101685965502   T   T   T
  0.4381339855003918  0.8333989380994709  0.2778470103331345   T   T   T
  0.6657107547873682  0.6026048013140605  0.4280826311290348   T   T   T
  0.6648448755546933  0.6019575517630885  0.2761167054037995   T   T   T
  0.8956011498775109  0.5631314931520618  0.4282206446814566   T   T   T
  0.8958790079982172  0.5653370906038264  0.2778038895051402   T   T   T
  0.5638599781794427  0.6682264062256326  0.5053000675036867   T   T   T
  0.5630901614390347  0.6663789789181408  0.3527437721276840   T   T   T
  0.5523981047300957  0.6580684760310945  0.2000561034819537   T   T   T
  0.8335062595775319  0.8964752710882168  0.5020610803193042   T   T   T
  0.8332569767429944  0.8963949996838615  0.3500135150963043   T   T   T
  0.8289207059809455  0.8927070167044675  0.1982155816124328   T   T   T
  0.6044160524887657  0.4376499403833289  0.5056966607058467   T   T   T
  0.6025657609406492  0.4361701291352440  0.3532216110154103   T   T   T
  0.5971568700377065  0.4261578252806377  0.2035707444538851   T   T   T
  0.6700034256307612  0.5005265723580361  0.4619648852729528   T   T   T
  0.6675832267723067  0.4997433319249130  0.3103033101072750   T   T   T
  0.7328029616696388  0.4999137287203350  0.4347007517245794   T   T   T
  0.7315185954386687  0.4999171229591616  0.2832890242833063   T   T   T
  0.8307959404364695  0.8308012638840938  0.4586808457835868   T   T   T
  0.8302105565237154  0.8301319039182595  0.3068661348674732   T   T   T
  0.7661339985942320  0.7661264486316655  0.4318938634997921   T   T   T
  0.7661552666684155  0.7660680371174285  0.2799493202501795   T   T   T
  0.5005307411479154  0.6699452942186677  0.4619674808298252   T   T   T
  0.4997656082245267  0.6677323317885160  0.3102698204146300   T   T   T
  0.4999333574988695  0.7327770813887331  0.4347084851748969   T   T   T
  0.4999005132237911  0.7315747233234285  0.2832367255736392   T   T   T
  0.8313842071573325  0.5072651578625061  0.5379026422470862   T   T   T
  0.8292714892111965  0.5001660221553302  0.3859103741418975   T   T   T
  0.8281811823059015  0.5049497981562789  0.2358868787885937   T   T   T
  0.7656249710539039  0.5011031272582439  0.5109793740002222   T   T   T
  0.7664446658121502  0.5001961346822911  0.3585976981605052   T   T   T
  0.7621610748461194  0.4998000697164080  0.2083079533070115   T   T   T
  0.6826620760676096  0.6825463946987979  0.5368015534084971   T   T   T
  0.6723584788017919  0.6723774514255408  0.3846643039031164   T   T   T
  0.6619934635255275  0.6620469010265932  0.2323294613390401   T   T   T
  0.7375884985578547  0.7375818024790737  0.5084832351450598   T   T   T
  0.7342013921265566  0.7342095800906222  0.3568651073570832   T   T   T
  0.7243758452128350  0.7243016574366188  0.2052600138733583   T   T   T
  0.5072749038279172  0.8313495736609177  0.5379007440178397   T   T   T
  0.5001615007676026  0.8292380478627585  0.3859307345671443   T   T   T
  0.5046872799482999  0.8278882772225996  0.2357552279910557   T   T   T
  0.5011130400141131  0.7655552985294936  0.5109841311910613   T   T   T
  0.5001604776585387  0.7664294716497779  0.3586098887394816   T   T   T
  0.4997868735607923  0.7621176345884791  0.2081469180798516   T   T   T
  0.9373106207330472  0.1038708405971080  0.5018764989915546   T   T   T
  0.9369997183163222  0.1041950551837605  0.3498865960485980   T   T   T
  0.9358647322807144  0.1076748978256748  0.1982770336686344   T   T   T
  0.9367793846980560  0.3343598599515477  0.4279686607717147   T   T   T
  0.9369505916722486  0.3354039180509537  0.2758399945342166   T   T   T
  0.9375143439756196  0.6042753280947163  0.5035450613062379   T   T   T
  0.9368063228174273  0.6035179138038644  0.3523641594460587   T   T   T
  0.9356281301022520  0.5985567923903610  0.2013692753921656   T   T   T
  0.9367737532952638  0.8334470621050971  0.4257852665962696   T   T   T
  0.9371463195665031  0.8337455982599850  0.2733437093828137   T   T   T
  0.3343900412398969  0.9368256091383034  0.4279713144486585   T   T   T
  0.3353846870532544  0.9369353308020248  0.2758344588725914   T   T   T
  0.1038909269459317  0.9372628471502683  0.5018894958184728   T   T   T
  0.1042065057119701  0.9370900863478807  0.3498982329982961   T   T   T
  0.1078403606439857  0.9361328159026804  0.1982733904290137   T   T   T
  0.8334153099436903  0.9367809738837318  0.4257713444573475   T   T   T
  0.8336971941222742  0.9369533687793860  0.2733453449259412   T   T   T
  0.6043387286128129  0.9374911100179493  0.5035357597438448   T   T   T
  0.6034558176970575  0.9368014134962331  0.3523850622696452   T   T   T
  0.5985348577020700  0.9357541953547022  0.2013063635102556   T   T   T
  0.1681764798168857  0.0001752154981011  0.4383483457653773   T   T   T
  0.1690153835254101  0.0000667439902408  0.2864396954150964   T   T   T
  0.1678623468889513  0.0002440149640113  0.4942928414969881   T   T   T
  0.1692403783485885  0.0001640582316328  0.3426584907751091   T   T   T
  0.1757496377282738  0.0001513977878512  0.1928390011979643   T   T   T
  0.3308229924018635  0.3308239526101597  0.4397191585958150   T   T   T
  0.3281820279707593  0.3283310507554771  0.2890189528908189   T   T   T
  0.3331568128639780  0.3331272501222843  0.4956258295658293   T   T   T
  0.3329107524709609  0.3329669030201408  0.3446876680375962   T   T   T
  0.3409295055624753  0.3408097942824612  0.1925994093578833   T   T   T
  0.0001420308990238  0.1681627859632423  0.4383342563671247   T   T   T
 -0.0000957306559513  0.1688490297120648  0.2864231067837755   T   T   T
  0.0002785554093471  0.1678504193061702  0.4942760668815486   T   T   T
  0.0000626173770193  0.1692242408907577  0.3426388731651271   T   T   T
  0.9998170015762076  0.1756116000110080  0.1928241131295197   T   T   T
  0.3263867464883163 -0.0001429841084464  0.5170417964128623   T   T   T
  0.3307926278108543  0.0001195679301097  0.3643766384365340   T   T   T
  0.3420536893332494  0.0003061261009708  0.2117230486123542   T   T   T
  0.3339765032661786 -0.0000654390104489  0.4201843291820970   T   T   T
  0.3352767568595779 -0.0001644868951666  0.2678023149036889   T   T   T
  0.1696788786138281  0.1696635590672335  0.5151794950703400   T   T   T
  0.1670556360452503  0.1671237035847607  0.3627572625924906   T   T   T
  0.1706904056865361  0.1707708414574763  0.2096230813427042   T   T   T
  0.1686114793294578  0.1686210402093458  0.4184844932222921   T   T   T
  0.1680343356013443  0.1680819372950350  0.2660506431734036   T   T   T
 -0.0001865073450593  0.3263316555330740  0.5170286760434688   T   T   T
  0.0001551033722614  0.3308405629112384  0.3643651149082387   T   T   T
  0.0003558307629005  0.3420469161758952  0.2117315011652700   T   T   T
 -0.0001163341851029  0.3339573107061818  0.4201783427673883   T   T   T
 -0.0001806946664865  0.3352135635483111  0.2678125817068915   T   T   T
  0.6693746979782003 -0.0000961962207982  0.4396558804887468   T   T   T
  0.6716757956872269  0.9997237108057889  0.2890978373252809   T   T   T
  0.6673438328190203  0.0002916154252085  0.4955640633691891   T   T   T
  0.6672537039498583  0.0000101301791400  0.3447298052061655   T   T   T
  0.6587486706845412 -0.0002743980367666  0.1925732213313923   T   T   T
  0.8326093080379594  0.3322364182985583  0.4417365764822590   T   T   T
  0.8337611561528423  0.3340558682045174  0.2900024693914914   T   T   T
  0.8317101281901360  0.3318546092974746  0.4979975594449988   T   T   T
  0.8317314192802429  0.3326774089117091  0.3457683783002533   T   T   T
  0.8251556060256907  0.3384357876019758  0.1953563095596306   T   T   T
  0.4995038228538274  0.1671322326581307  0.4417601441814770   T   T   T
  0.5001478694505358  0.1659450810556278  0.2899676050375214   T   T   T
  0.4999352217289019  0.1682256943505108  0.4980515398075180   T   T   T
  0.5009961722367514  0.1684506850179479  0.3457463514741169   T   T   T
  0.5140337631566487  0.1749999032513527  0.1952518391889642   T   T   T
  0.8307917012147117  0.0004226993652657  0.5151751268116982   T   T   T
  0.8331862256324079  0.0003264064829297  0.3628544462394138   T   T   T
  0.8291006053339672  0.0000760962150737  0.2096004428130823   T   T   T
  0.8318175838355617  0.0000510886977968  0.4185398397056355   T   T   T
  0.8318341301307015 -0.0000597893950581  0.2660384162348408   T   T   T
  0.6701597219696335  0.1684515423995597  0.5180233292500875   T   T   T
  0.6688922866046966  0.1679440516333637  0.3656859108810115   T   T   T
  0.6757160759703795  0.1691964854249109  0.2156450263551993   T   T   T
  0.6687085987681118  0.1696500468301947  0.4215632556801114   T   T   T
  0.6704392128860978  0.1688664026984408  0.2709478224474225   T   T   T
  0.4984981305109413  0.3300218820575258  0.5180325386649982   T   T   T
  0.4990501578927599  0.3311609133310908  0.3657257321932945   T   T   T
  0.4941198525918977  0.3246144347717066  0.2155110454166038   T   T   T
  0.5009730997141483  0.3310954425209958  0.4216189130517958   T   T   T
  0.4985552375279366  0.3294140499602761  0.2708670513882919   T   T   T
  0.1670754666915769  0.4994948251924313  0.4417543524965219   T   T   T
  0.1659793925679054  0.5001432536972088  0.2899326192149616   T   T   T
  0.1681865531582284  0.4999097016926295  0.4980410300327756   T   T   T
  0.1684669530068600  0.5010702240484161  0.3457067311454595   T   T   T
  0.1746448909462437  0.5136455994202522  0.1950555617267843   T   T   T
  0.3322573207126048  0.8326349102204316  0.4417354458880866   T   T   T