bilayer_5                               
   1.00000000000000     
    14.6976995467999991    0.0000000000000000    0.0000000000000000
    -7.3488497733999996   12.7285811846999994    0.0000000000000000
     0.0000000000000000    0.0000000000000000   49.2004013061999999
   H    O 
   288   144
Selective dynamics
Direct
  0.1672312497872563  0.0632132724600801  0.2990359324384024
  0.1671129898180709  0.0632248083657571  0.4512280289989415
  0.1670302585366607  0.0634095927305665  0.6041958065325729
  0.3959820226832119  0.3327687651392997  0.2990359324384024
  0.3961118185580745  0.3328870251084850  0.4512280289989415
  0.3963793342042941  0.3329697563898957  0.6041958065325729
  0.1038856946144495  0.1669413700061885  0.2223995601792200
  0.1037378881921275  0.1669855425976262  0.3751028147891489
  0.1037767606130735  0.1669633368896631  0.5275478537015960
  0.0630556754338313  0.3961143128856912  0.2223995601792200
  0.0632476544475916  0.3962621193080135  0.3751028147891489
  0.0631865763186821  0.3962232468870679  0.5275478537015960
  0.1669413550603128  0.1038856945503302  0.2223995601792200
  0.1669855276517505  0.1037378881280082  0.3751028147891489
  0.1669633219437875  0.1037767605489541  0.5275478537015960
  0.3961142830482183  0.0630556753773005  0.2223995601792200
  0.3962620894705406  0.0632476543910609  0.3751028147891489
  0.3962232170495950  0.0631865762621513  0.5275478537015960
  0.0632132798529149  0.1672312646872735  0.2990359324384024
  0.0632248157585919  0.1671130047180882  0.4512280289989415
  0.0634096001234013  0.1670302734366779  0.6041958065325729
  0.3327687651223533  0.3959820226723477  0.2990359324384024
  0.3328870250915385  0.3961118185472103  0.4512280289989415
  0.3329697563729492  0.3963793341934299  0.6041958065325729
  0.1758700656205566  0.0000000000000000  0.1896668099084096
  0.1712990233459679  0.0000000000000000  0.3423303975289768
  0.1713220517270141  0.0000000000000000  0.4946050087397257
  0.2366768847865324  0.0000000000000000  0.2170435352092752
  0.2339053171741483  0.0000000000000000  0.3696951225612010
  0.2337935702668822  0.0000000000000000  0.5220001871360551
  0.3241299194834548  0.3241299194469258  0.1896668099084096
  0.3287009617580440  0.3287009617215150  0.3423303975289768
  0.3286779333769976  0.3286779333404686  0.4946050087397257
  0.2633231301227784  0.2633231300909745  0.2170435352092752
  0.2660946977351626  0.2660946977033588  0.3696951225612010
  0.2662064446424287  0.2662064446106248  0.5220001871360551
  0.9999999999942517  0.1758700656771016  0.1896668099084096
  0.9999999999942517  0.1712990234025129  0.3423303975289768
  0.9999999999942517  0.1713220517835591  0.4946050087397257
  0.9999999999769926  0.2366768848085592  0.2170435352092752
  0.9999999999769926  0.2339053171961751  0.3696951225612010
  0.9999999999769926  0.2337935702889090  0.5220001871360551
  0.3294486580782431  0.0000000000000000  0.2663104941332102
  0.3290428751147929  0.0000000000000000  0.4184471401003255
  0.3293290956968786  0.0000000000000000  0.5709888097141207
  0.2663038848408896  0.0000000000000000  0.2935760032764290
  0.2662603145583091  0.0000000000000000  0.4457813999624058
  0.2662282775502479  0.0000000000000000  0.5985246755428508
  0.1705513120438332  0.1705513269620332  0.2663104941332102
  0.1709570950072833  0.1709571099254834  0.4184471401003255
  0.1706708744251974  0.1706708893433974  0.5709888097141207
  0.2336961151861678  0.2336961151724047  0.2935760032764290
  0.2337396854687479  0.2337396854549847  0.4457813999624058
  0.2337717224768091  0.2337717224630459  0.5985246755428508
  0.9999999999685727  0.3294486580834301  0.2663104941332102
  0.9999999999685727  0.3290428751199798  0.4184471401003255
  0.9999999999685727  0.3293290957020655  0.5709888097141207
  0.0000000000188862  0.2663038848786621  0.2935760032764290
  0.0000000000188862  0.2662603145960815  0.4457813999624058
  0.0000000000188862  0.2662282775880204  0.5985246755428508
  0.6672312348597459  0.0632132724600801  0.2990359324384024
  0.6671129748905624  0.0632248083657571  0.4512280289989415
  0.6670302436091520  0.0634095927305665  0.6041958065325729
  0.8959820226559989  0.3327687651392997  0.2990359324384024
  0.8961118185308599  0.3328870251084849  0.4512280289989415
  0.8963793341770806  0.3329697563898957  0.6041958065325729
  0.4367867424463388  0.1040179847636733  0.2990359324384024
  0.4367752065406620  0.1038881888888114  0.4512280289989415
  0.4365904221758528  0.1036206732425918  0.6041958065325729
  0.6038856275019117  0.1669413700061885  0.2223995601792200
  0.6037378210795886  0.1669855425976262  0.3751028147891489
  0.6037766935005353  0.1669633368896631  0.5275478537015960
  0.5630556232896156  0.3961143128856912  0.2223995601792200
  0.5632476023033760  0.3962621193080135  0.3751028147891489
  0.5631865241744668  0.3962232468870679  0.5275478537015960
  0.4369443469580842  0.3330586598203847  0.2223995601792200
  0.4367523679443239  0.3330144872289468  0.3751028147891489
  0.4368134460732335  0.3330366929369100  0.5275478537015960
  0.6669413700014274  0.1038856945503302  0.2223995601792200
  0.6669855425928658  0.1037378881280082  0.3751028147891489
  0.6669633368849013  0.1037767605489541  0.5275478537015960
  0.8961143128215864  0.0630556753773005  0.2223995601792200
  0.8962621192439094  0.0632476543910609  0.3751028147891489
  0.8962232468229626  0.0631865762621513  0.5275478537015960
  0.5632132575092800  0.1672312646872735  0.2990359324384024
  0.5632247934149586  0.1671130047180882  0.4512280289989415
  0.5634095777797669  0.1670302734366779  0.6041958065325729
  0.8327687055620130  0.3959820226723477  0.2990359324384024
  0.8328869655311965  0.3961118185472103  0.4512280289989415
  0.8329696968126070  0.3963793341934299  0.6041958065325729
  0.6758700507610832  0.0000000000000000  0.1896668099084096
  0.6712990084864937  0.0000000000000000  0.3423303975289768
  0.6713220368675408  0.0000000000000000  0.4946050087397257
  0.7366769295282299  0.0000000000000000  0.2170435352092752
  0.7339053619158440  0.0000000000000000  0.3696951225612010
  0.7337936150085783  0.0000000000000000  0.5220001871360551
  0.8241298896556594  0.3241299194469258  0.1896668099084096
  0.8287009319302489  0.3287009617215150  0.3423303975289768
  0.8286779035492018  0.3286779333404686  0.4946050087397257
  0.7633231300955640  0.2633231300909745  0.2170435352092752
  0.7660946977079499  0.2660946977033588  0.3696951225612010
  0.7662064446152156  0.2662064446106248  0.5220001871360551
  0.5000000000350795  0.1758700656771016  0.1896668099084096
  0.5000000000350795  0.1712990234025129  0.3423303975289768
  0.5000000000350795  0.1713220517835591  0.4946050087397257
  0.5000000000178204  0.2366768848085592  0.2170435352092752
  0.5000000000178204  0.2339053171961751  0.3696951225612010
  0.5000000000178204  0.2337935702889090  0.5220001871360551
  0.8294486581190701  0.0000000000000000  0.2663104941332102
  0.8290428751556196  0.0000000000000000  0.4184471401003255
  0.8293290957377045  0.0000000000000000  0.5709888097141207
  0.7663038848817091  0.0000000000000000  0.2935760032764290
  0.7662603145991294  0.0000000000000000  0.4457813999624058
  0.7662282775910688  0.0000000000000000  0.5985246755428508
  0.6705512822840728  0.1705513269620332  0.2663104941332102
  0.6709570652475232  0.1709571099254834  0.4184471401003255
  0.6706708446654382  0.1706708893433974  0.5709888097141207
  0.7336961151589553  0.2336961151724047  0.2935760032764290
  0.7337396854415350  0.2337396854549847  0.4457813999624058
  0.7337717224495955  0.2337717224630459  0.5985246755428508
  0.5000000000094005  0.3294486580834301  0.2663104941332102
  0.5000000000094005  0.3290428751199798  0.4184471401003255
  0.5000000000094005  0.3293290957020655  0.5709888097141207
  0.4999999999916724  0.2663038848786621  0.2935760032764290
  0.4999999999916724  0.2662603145960815  0.4457813999624058
  0.4999999999916724  0.2662282775880204  0.5985246755428508
  0.1672312646882398  0.5632133171351345  0.2990359324384024
  0.1671130047190545  0.5632248530408130  0.4512280289989415
  0.1670302734376442  0.5634096374056213  0.6041958065325729
  0.3959820524496306  0.8327687651118111  0.2990359324384024
  0.3961118483244931  0.8328870250809945  0.4512280289989415
  0.3963793639707128  0.8329697563624050  0.6041958065325729
  0.3330586300315413  0.4369443171316886  0.2223995601792200
  0.3330144574401034  0.4367523381179284  0.3751028147891489
  0.3330366631480666  0.4368134162468379  0.5275478537015960
  0.1038857094805810  0.6669413699786971  0.2223995601792200
  0.1037379030582590  0.6669855425701355  0.3751028147891489
  0.1037767754792049  0.6669633368621710  0.5275478537015960
  0.0630556903141665  0.8961143724877784  0.2223995601792200
  0.0632476693279268  0.8962621789101014  0.3751028147891489
  0.0631865911990172  0.8962233064891546  0.5275478537015960
  0.1669413848763416  0.6038856871378772  0.2223995601792200
  0.1669855574677793  0.6037378807155541  0.3751028147891489
  0.1669633517598162  0.6037767531365009  0.5275478537015960
  0.3961143427122218  0.5630556828918800  0.2223995601792200
  0.3962621491345441  0.5632476619056405  0.3751028147891489
  0.3962232767135985  0.5631865837767313  0.5275478537015960
  0.0632132873296648  0.6672312945138444  0.2990359324384024
  0.0632248232353418  0.6671130345446611  0.4512280289989415
  0.0634096076001512  0.6670303032632505  0.6041958065325729
  0.3327687651024012  0.8959820822744353  0.2990359324384024
  0.3328870250715865  0.8961118781492963  0.4512280289989415
  0.3329697563529972  0.8963793937955170  0.6041958065325729
  0.1040179698687720  0.4367867126639471  0.2990359324384024
  0.1038881739939101  0.4367751767582704  0.4512280289989415
  0.1036206583476905  0.4365903923934611  0.6041958065325729
  0.1758700656544352  0.4999999999725020  0.1896668099084096
  0.1712990233798466  0.4999999999725020  0.3423303975289768
  0.1713220517608928  0.4999999999725020  0.4946050087397257
  0.2366768847523766  0.4999999999725020  0.2170435352092752
  0.2339053171399925  0.4999999999725020  0.3696951225612010
  0.2337935702327264  0.4999999999725020  0.5220001871360551
  0.3241299492766183  0.8241299492735060  0.1896668099084096
  0.3287009915512075  0.8287009915480955  0.3423303975289768
  0.3286779631701611  0.8286779631670484  0.4946050087397257
  0.2633231301279014  0.7633231301420406  0.2170435352092752
  0.2660946977402857  0.7660946977544265  0.3696951225612010
  0.2662064446475517  0.7662064446616922  0.5220001871360551
  0.9999999999949480  0.6758701103521495  0.1896668099084096
  0.9999999999949480  0.6712990680775600  0.3423303975289768
  0.9999999999949480  0.6713220964586071  0.4946050087397257
  0.9999999999776890  0.7366769294836150  0.2170435352092752
  0.9999999999776890  0.7339053618712290  0.3696951225612010
  0.9999999999776890  0.7337936149639633  0.5220001871360551
  0.3294486879127034  0.4999999999725020  0.2663104941332102
  0.3290429049492531  0.4999999999725020  0.4184471401003255
  0.3293291255313388  0.4999999999725020  0.5709888097141207
  0.2663039146073154  0.4999999999725020  0.2935760032764290
  0.2662603443247348  0.4999999999725020  0.4457813999624058
  0.2662283073166737  0.4999999999725020  0.5985246755428508
  0.1705513418576451  0.6705513418615748  0.2663104941332102
  0.1709571248210952  0.6709571248250252  0.4184471401003255
  0.1706709042390092  0.6706709042429403  0.5709888097141207
  0.2336961151662158  0.7336961747744927  0.2935760032764290
  0.2337396854487959  0.7337397450570724  0.4457813999624058
  0.2337717224568571  0.7337717820651329  0.5985246755428508
  0.0000000000166622  0.8294487176855160  0.2663104941332102
  0.0000000000166622  0.8290429347220656  0.4184471401003255
  0.0000000000166622  0.8293291553041505  0.5709888097141207
  0.9999999999847233  0.7663038848511629  0.2935760032764290
  0.9999999999847233  0.7662603145685831  0.4457813999624058
  0.9999999999847233  0.7662282775605226  0.5985246755428508
  0.6672312944616055  0.5632133171351345  0.2990359324384024
  0.6671130344924220  0.5632248530408130  0.4512280289989415
  0.6670303032110114  0.5634096374056213  0.6041958065325729
  0.8959820226218360  0.8327687651118111  0.2990359324384024
  0.8961118184966970  0.8328870250809945  0.4512280289989415
  0.8963793341429177  0.8329697563624050  0.6041958065325729
  0.4367867722623676  0.6040179773512202  0.2990359324384024
  0.4367752363566908  0.6038881814763593  0.4512280289989415
  0.4365904519918815  0.6036206658301385  0.6041958065325729
  0.8330586300043281  0.4369443171316886  0.2223995601792200
  0.8330144574128896  0.4367523381179284  0.3751028147891489
  0.8330366631208541  0.4368134162468379  0.5275478537015960
  0.6038856871369535  0.6669413699786971  0.2223995601792200
  0.6037378807146304  0.6669855425701355  0.3751028147891489
  0.6037767531355771  0.6669633368621710  0.5275478537015960
  0.5630556828708266  0.8961143724877784  0.2223995601792200
  0.5632476618845871  0.8962621789101014  0.3751028147891489
  0.5631865837556779  0.8962233064891546  0.5275478537015960
  0.4369443767512548  0.8330586896469585  0.2223995601792200
  0.4367523977374945  0.8330145170555200  0.3751028147891489
  0.4368134758664041  0.8330367227634845  0.5275478537015960
  0.6669413700168674  0.6038856871378772  0.2223995601792200
  0.6669855426083059  0.6037378807155541  0.3751028147891489
  0.6669633369003414  0.6037767531365009  0.5275478537015960
  0.8961143724855899  0.5630556828918800  0.2223995601792200
  0.8962621789079129  0.5632476619056405  0.3751028147891489
  0.8962233064869661  0.5631865837767313  0.5275478537015960
  0.5632133171710666  0.6672312945138444  0.2990359324384024
  0.5632248530767452  0.6671130345446611  0.4512280289989415
  0.5634096374415535  0.6670303032632505  0.6041958065325729
  0.8327687651432242  0.8959820822744353  0.2990359324384024
  0.8328870251124075  0.8961118781492963  0.4512280289989415
  0.8329697563938181  0.8963793937955170  0.6041958065325729
  0.6040179177245628  0.4367867126639471  0.2990359324384024
  0.6038881218497019  0.4367751767582704  0.4512280289989415
  0.6036206062034810  0.4365903923934611  0.6041958065325729
  0.6758700507269274  0.4999999999725020  0.1896668099084096
  0.6712990084523379  0.4999999999725020  0.3423303975289768
  0.6713220368333850  0.4999999999725020  0.4946050087397257
  0.7366769294940742  0.4999999999725020  0.2170435352092752
  0.7339053618816882  0.4999999999725020  0.3696951225612010
  0.7337936149744225  0.4999999999725020  0.5220001871360551
  0.8241299492494044  0.8241299492735060  0.1896668099084096
  0.8287009915239939  0.8287009915480955  0.3423303975289768
  0.8286779631429468  0.8286779631670484  0.4946050087397257
  0.7633231301006870  0.7633231301420406  0.2170435352092752
  0.7660946977130729  0.7660946977544265  0.3696951225612010
  0.7662064446203386  0.7662064446616922  0.5220001871360551
  0.4999999999677343  0.6758701103521495  0.1896668099084096
  0.4999999999677343  0.6712990680775600  0.3423303975289768
  0.4999999999677343  0.6713220964586071  0.4946050087397257
  0.5000000000185167  0.7366769294836150  0.2170435352092752
  0.5000000000185167  0.7339053618712290  0.3696951225612010
  0.5000000000185167  0.7337936149639633  0.5220001871360551
  0.8294486580849071  0.4999999999725020  0.2663104941332102
  0.8290428751214567  0.4999999999725020  0.4184471401003255
  0.8293290957035416  0.4999999999725020  0.5709888097141207
  0.7663038848475533  0.4999999999725020  0.2935760032764290
  0.7662603145649736  0.4999999999725020  0.4457813999624058
  0.7662282775569130  0.4999999999725020  0.5985246755428508
  0.6705513418984662  0.6705513418615748  0.2663104941332102
  0.6709571248619166  0.6709571248250252  0.4184471401003255
  0.6706709042798317  0.6706709042429403  0.5709888097141207
  0.7336961747401664  0.7336961747744927  0.2935760032764290
  0.7337397450227461  0.7337397450570724  0.4457813999624058
  0.7337717820308066  0.7337717820651329  0.5985246755428508
  0.4999999999894484  0.8294487176855160  0.2663104941332102
  0.4999999999894484  0.8290429347220656  0.4184471401003255
  0.4999999999894484  0.8293291553041505  0.5709888097141207
  0.5000000000255511  0.7663038848511629  0.2935760032764290
  0.5000000000255511  0.7662603145685831  0.4457813999624058
  0.5000000000255511  0.7662282775605226  0.5985246755428508
  0.9367866828179626  0.1040179847636733  0.2990359324384024
  0.9367751469122840  0.1038881888888114  0.4512280289989415
  0.9365903625474757  0.1036206732425918  0.6041958065325729
  0.9369443171302889  0.3330586598203847  0.2223995601792200
  0.9367523381165285  0.3330144872289468  0.3751028147891489
  0.9368134162454377  0.3330366929369100  0.5275478537015960
  0.9367867425026074  0.6040179773512202  0.2990359324384024
  0.9367752065969288  0.6038881814763593  0.4512280289989415
  0.9365904222321205  0.6036206658301385  0.6041958065325729
  0.9369443171228780  0.8330586896469585  0.2223995601792200
  0.9367523381091175  0.8330145170555200  0.3751028147891489
  0.9368134162380267  0.8330367227634845  0.5275478537015960
  0.3330586597979600  0.9369443171041907  0.2223995601792200
  0.3330144872065221  0.9367523380904302  0.3751028147891489
  0.3330366929144853  0.9368134162193394  0.5275478537015960
  0.1040179922458162  0.9367867424905211  0.2990359324384024
  0.1038881963709543  0.9367752065848425  0.4512280289989415
  0.1036206807247347  0.9365904222200342  0.6041958065325729
  0.8330586299701651  0.9369443171041907  0.2223995601792200
  0.8330144573787267  0.9367523380904302  0.3751028147891489
  0.8330366630866912  0.9368134162193394  0.5275478537015960
  0.6040179773863494  0.9367867424905211  0.2990359324384024
  0.6038881815114885  0.9367752065848425  0.4512280289989415
  0.6036206658652676  0.9365904222200342  0.6041958065325729
  0.1709427300660643  0.0000000000000000  0.2095096254399545
  0.1684452731330700  0.0000000000000000  0.3624518953720390
  0.1684385581292543  0.0000000000000000  0.5147255199182061
  0.1691556467395605  0.0000000000000000  0.3061080773742432
  0.1689610554192530  0.0000000000000000  0.4583202589987242
  0.1706632537756719  0.0000000000000000  0.6102756549792046
  0.3290572550768283  0.3290572550791873  0.2095096254399545
  0.3315547120098224  0.3315547120121815  0.3624518953720390
  0.3315614270136382  0.3315614270159972  0.5147255199182061
  0.3308443383549233  0.3308443383769075  0.3061080773742432
  0.3310389296752305  0.3310389296972147  0.4583202589987242
  0.3293367313188115  0.3293367313407957  0.6102756549792046
  0.0000000000234053  0.1709427300448404  0.2095096254399545
  0.0000000000234053  0.1684452731118461  0.3624518953720390
  0.0000000000234053  0.1684385581080305  0.5147255199182061
  0.0000000000037801  0.1691556467471207  0.3061080773742432
  0.0000000000037801  0.1689610554268131  0.4583202589987242
  0.0000000000037801  0.1706632537832321  0.6102756549792046
  0.3319082317640079  0.0000000000000000  0.2864156764941547
  0.3317614319682884  0.0000000000000000  0.4385702624726734
  0.3320159758786276  0.0000000000000000  0.5911271191027621
  0.3320674690409632  0.0000000000000000  0.2298590348879215
  0.3312623719165319  0.0000000000000000  0.3822163914831980
  0.3313101406301838  0.0000000000000000  0.5347036346638000
  0.1680917831409262  0.1680917831047524  0.2864156764941547
  0.1682385829366455  0.1682385829004718  0.4385702624726734
  0.1679840390263065  0.1679840389901328  0.5911271191027621
  0.1679325011331033  0.1679325011349578  0.2298590348879215
  0.1687375982575343  0.1687375982593888  0.3822163914831980
  0.1686898295438822  0.1686898295457367  0.5347036346638000
  0.9999999999939035  0.3319082020192821  0.2864156764941547
  0.9999999999939035  0.3317614022235626  0.4385702624726734
  0.9999999999939035  0.3320159461339018  0.5911271191027621
  0.9999999999639826  0.3320674988375444  0.2298590348879215
  0.9999999999639826  0.3312624017131131  0.3822163914831980
  0.9999999999639826  0.3313101704267650  0.5347036346638000
  0.6709427449391379  0.0000000000000000  0.2095096254399545
  0.6684452880061423  0.0000000000000000  0.3624518953720390
  0.6684385730023273  0.0000000000000000  0.5147255199182061
  0.6691556914132158  0.0000000000000000  0.3061080773742432
  0.6689611000929090  0.0000000000000000  0.4583202589987242
  0.6706632984493270  0.0000000000000000  0.6102756549792046
  0.8290572550496143  0.3290572550791873  0.2095096254399545
  0.8315547119826098  0.3315547120121815  0.3624518953720390
  0.8315614269864248  0.3315614270159972  0.5147255199182061
  0.8308443085951615  0.3308443383769075  0.3061080773742432
  0.8310388999154683  0.3310389296972147  0.4583202589987242
  0.8293367015590503  0.3293367313407957  0.6102756549792046
  0.4999999999961915  0.1709427300448405  0.2095096254399545
  0.4999999999961915  0.1684452731118461  0.3624518953720390
  0.4999999999961915  0.1684385581080305  0.5147255199182061
  0.5000000000446008  0.1691556467471207  0.3061080773742432
  0.5000000000446008  0.1689610554268131  0.4583202589987242
  0.5000000000446008  0.1706632537832321  0.6102756549792046
  0.8319081722036665  0.0000000000000000  0.2864156764941547
  0.8317613724079448  0.0000000000000000  0.4385702624726734
  0.8320159163182848  0.0000000000000000  0.5911271191027621
  0.8320674690817841  0.0000000000000000  0.2298590348879215
  0.8312623719573532  0.0000000000000000  0.3822163914831980
  0.8313101406710042  0.0000000000000000  0.5347036346638000
  0.6680917682134171  0.1680917831047524  0.2864156764941547
  0.6682385680091388  0.1682385829004718  0.4385702624726734
  0.6679840240987989  0.1679840389901328  0.5911271191027621
  0.6679325309064706  0.1679325011349579  0.2298590348879215
  0.6687376280309015  0.1687375982593888  0.3822163914831980
  0.6686898593172506  0.1686898295457367  0.5347036346638000
  0.5000000000347313  0.3319082020192821  0.2864156764941547
  0.5000000000347313  0.3317614022235626  0.4385702624726734
  0.5000000000347313  0.3320159461339018  0.5911271191027621
  0.5000000000048033  0.3320674988375444  0.2298590348879215
  0.5000000000048033  0.3312624017131131  0.3822163914831980
  0.5000000000048033  0.3313101704267650  0.5347036346638000
  0.1709427300319014  0.4999999999725020  0.2095096254399545
  0.1684452730989071  0.4999999999725020  0.3624518953720390
  0.1684385580950915  0.4999999999725020  0.5147255199182061
  0.1691556467053976  0.4999999999725020  0.3061080773742432
  0.1689610553850901  0.4999999999725020  0.4583202589987242
  0.1706632537415090  0.4999999999725020  0.6102756549792046
  0.3290573146580394  0.8290573146812739  0.2095096254399545
  0.3315547715910335  0.8315547716142694  0.3624518953720390
  0.3315614865948492  0.8315614866180844  0.5147255199182061
  0.3308443384013359  0.8308443085739020  0.3061080773742432
  0.3310389297216432  0.8310388998942089  0.4583202589987242
  0.3293367313652242  0.8293367015377908  0.6102756549792046
  0.9999999999686011  0.6709427449443817  0.2095096254399545
  0.9999999999686011  0.6684452880113861  0.3624518953720390
  0.9999999999686011  0.6684385730075711  0.5147255199182061
  0.0000000000044764  0.6691556914221687  0.3061080773742432
  0.0000000000044764  0.6689611001018618  0.4583202589987242
  0.0000000000044764  0.6706632984582799  0.6102756549792046
  0.3319082317978866  0.4999999999725020  0.2864156764941547
  0.3317614320021671  0.4999999999725020  0.4385702624726734
  0.3320159759125063  0.4999999999725020  0.5911271191027621
  0.3320674988754235  0.4999999999725020  0.2298590348879215
  0.3312624017509921  0.4999999999725020  0.3822163914831980
  0.3313101704646441  0.4999999999725020  0.5347036346638000
  0.1680917979738752  0.6680918277797991  0.2864156764941547
  0.1682385977695946  0.6682386275755209  0.4385702624726734
  0.1679840538592556  0.6679840836651809  0.5911271191027621
  0.1679324862253981  0.6679325309615377  0.2298590348879215
  0.1687375833498290  0.6687376280859686  0.3822163914831980
  0.1686898146361769  0.6686898593723176  0.5347036346638000
  0.0000000000152482  0.8319082317672917  0.2864156764941547
  0.0000000000152482  0.8317614319715699  0.4385702624726734
  0.0000000000152483  0.8320159758819099  0.5911271191027621
  0.0000000000103952  0.8320674690345401  0.2298590348879215
  0.0000000000103952  0.8312623719101092  0.3822163914831980
  0.0000000000103952  0.8313101406237602  0.5347036346638000
  0.6709426853038190  0.4999999999725020  0.2095096254399545
  0.6684452283708234  0.4999999999725020  0.3624518953720390
  0.6684385133670084  0.4999999999725020  0.5147255199182061
  0.6691556913790530  0.4999999999725020  0.3061080773742432
  0.6689611000587461  0.4999999999725020  0.4583202589987242
  0.6706632984151641  0.4999999999725020  0.6102756549792046
  0.8290572550296622  0.8290573146812739  0.2095096254399545
  0.8315547119626577  0.8315547716142694  0.3624518953720390
  0.8315614269664727  0.8315614866180844  0.5147255199182061
  0.8308443085735396  0.8308443085739020  0.3061080773742432
  0.8310388998938465  0.8310388998942089  0.4583202589987242
  0.8293367015374284  0.8293367015377908  0.6102756549792046
  0.5000000000094218  0.6709427449443817  0.2095096254399545
  0.5000000000094218  0.6684452880113861  0.3624518953720390
  0.5000000000094218  0.6684385730075711  0.5147255199182061
  0.4999999999772626  0.6691556914221687  0.3061080773742432
  0.4999999999772626  0.6689611001018618  0.4583202589987242
  0.4999999999772626  0.6706632984582799  0.6102756549792046
  0.8319081721695107  0.4999999999725020  0.2864156764941547
  0.8317613723737890  0.4999999999725020  0.4385702624726734
  0.8320159162841290  0.4999999999725020  0.5911271191027621
  0.8320674690476212  0.4999999999725020  0.2298590348879215
  0.8312623719231903  0.4999999999725020  0.3822163914831980
  0.8313101406368413  0.4999999999725020  0.5347036346638000
  0.6680917682141134  0.6680918277797991  0.2864156764941547
  0.6682385680098352  0.6682386275755209  0.4385702624726734
  0.6679840240994952  0.6679840836651809  0.5911271191027621
  0.6679325309670942  0.6679325309615377  0.2298590348879215
  0.6687376280915250  0.6687376280859686  0.3822163914831980
  0.6686898593778741  0.6686898593723176  0.5347036346638000
  0.5000000595891976  0.8319082317672917  0.2864156764941547
  0.5000000595891976  0.8317614319715699  0.4385702624726734
  0.5000000595891976  0.8320159758819099  0.5911271191027621
  0.4999999999831815  0.8320674690345401  0.2298590348879215
  0.4999999999831815  0.8312623719101092  0.3822163914831980
  0.4999999999831815  0.8313101406237602  0.5347036346638000
 
  0.00000000E+00  0.00000000E+00  0.00000000E+00
  0.00000000E+00  0.00000000E+00  0.00000000E+00
  0.00000000E+00  0.00000000E+00  0.00000000E+00
  0.00000000E+00  0.00000000E+00  0.00000000E+00
  0.00000000E+00  0.00000000E+00  0.00000000E+00
  0.00000000E+00  0.00000000E+00  0.00000000E+00
  0.00000000E+00  0.00000000E+00  0.00000000E+00
  0.00000000E+00  0.00000000E+00  0.00000000E+00
  0.00000000E+00  0.00000000E+00  0.00000000E+00
  0.00000000E+00  0.00000000E+00  0.00000000E+00
  0.00000000E+00  0.00000000E+00  0.00000000E+00
  0.00000000E+00  0.00000000E+00  0.00000000E+00
  0.00000000E+00  0.00000000E+00  0.00000000E+00
  0.00000000E+00  0.00000000E+00  0.00000000E+00
  0.00000000E+00  0.00000000E+00  0.00000000E+00
  0.00000000E+00  0.00000000E+00  0.00000000E+00
  0.00000000E+00  0.00000000E+00  0.00000000E+00
  0.00000000E+00  0.00000000E+00  0.00000000E+00
  0.00000000E+00  0.00000000E+00  0.00000000E+00
  0.00000000E+00  0.00000000E+00  0.00000000E+00
  0.00000000E+00  0.00000000E+00  0.00000000E+00
  0.00000000E+00  0.00000000E+00  0.00000000E+00
  0.00000000E+00  0.00000000E+00  0.00000000E+00
  0.00000000E+00  0.00000000E+00  0.00000000E+00
  0.00000000E+00  0.00000000E+00  0.00000000E+00
  0.00000000E+00  0.00000000E+00  0.00000000E+00
  0.00000000E+00  0.00000000E+00  0.00000000E+00
  0.00000000E+00  0.00000000E+00  0.00000000E+00
  0.00000000E+00  0.00000000E+00  0.00000000E+00
  0.00000000E+00  0.00000000E+00  0.00000000E+00
  0.00000000E+00  0.00000000E+00  0.00000000E+00
  0.00000000E+00  0.00000000E+00  0.00000000E+00
  0.00000000E+00  0.00000000E+00  0.00000000E+00
  0.00000000E+00  0.00000000E+00  0.00000000E+00
  0.00000000E+00  0.00000000E+00  0.00000000E+00
  0.00000000E+00  0.00000000E+00  0.00000000E+00
  0.00000000E+00  0.00000000E+00  0.00000000E+00
  0.00000000E+00  0.00000000E+00  0.00000000E+00
  0.00000000E+00  0.00000000E+00  0.00000000E+00
  0.00000000E+00  0.00000000E+00  0.00000000E+00
  0.00000000E+00  0.00000000E+00  0.00000000E+00
  0.00000000E+00  0.00000000E+00  0.00000000E+00
  0.00000000E+00  0.00000000E+00  0.00000000E+00
  0.00000000E+00  0.00000000E+00  0.00000000E+00
  0.00000000E+00  0.00000000E+00  0.00000000E+00
  0.00000000E+00  0.00000000E+00  0.00000000E+00
  0.00000000E+00  0.00000000E+00  0.00000000E+00
  0.00000000E+00  0.00000000E+00  0.00000000E+00
  0.00000000E+00  0.00000000E+00  0.00000000E+00
  0.00000000E+00  0.00000000E+00  0.00000000E+00
  0.00000000E+00  0.00000000E+00  0.00000000E+00
  0.00000000E+00  0.00000000E+00  0.00000000E+00
  0.00000000E+00  0.00000000E+00  0.00000000E+00
  0.00000000E+00  0.00000000E+00  0.00000000E+00
  0.00000000E+00  0.00000000E+00  0.00000000E+00
  0.00000000E+00  0.00000000E+00  0.00000000E+00
  0.00000000E+00  0.00000000E+00  0.00000000E+00
  0.00000000E+00  0.00000000E+00  0.00000000E+00
  0.00000000E+00  0.00000000E+00  0.00000000E+00
  0.00000000E+00  0.00000000E+00  0.00000000E+00
  0.00000000E+00  0.00000000E+00  0.00000000E+00
  0.00000000E+00  0.00000000E+00  0.00000000E+00
  0.00000000E+00  0.00000000E+00  0.00000000E+00
  0.00000000E+00  0.00000000E+00  0.00000000E+00
  0.00000000E+00  0.00000000E+00  0.00000000E+00
  0.00000000E+00  0.00000000E+00  0.00000000E+00
  0.00000000E+00  0.00000000E+00  0.00000000E+00