au_111_4_layers_5x5_with_h2o_6_bilayers_
   1.00000000000000     
    14.6976995467999991    0.0000000000000000    0.0000000000000000
    -7.3488497733999996   12.7285811846999994    0.0000000000000000
     0.0000000000000000    0.0000000000000000   49.2004013061999999
   Au   H    O 
   100   144    72
Selective dynamics
Direct
  0.0000000000000000  0.0000000000000000  0.0000000000000000   F   F   F
  0.2680472879648690  0.1343133675347659  0.0470680284514842   T   T   T
  0.1319790480953671  0.2670048627917225  0.0941569612202429   T   T   T
  0.0000653913520665  0.9997210893558517  0.1404888481589808   T   T   T
  0.9999999999764526  0.2000000029901230  0.0000000000000000   F   F   F
  0.2656708449001144  0.3340221913357837  0.0475789472399128   T   T   T
  0.1337014004014634  0.0659711214142717  0.0937054966918822   T   T   T
  0.9994223536900151  0.1997563432062108  0.1421799395150103   T   T   T
  0.2000000030136633  0.2000000029901230  0.0000000000000000   F   F   F
  0.0662357677833043  0.3336459336631350  0.0470612169005236   T   T   T
  0.3324068352807146  0.0661456345701694  0.0944575824038409   T   T   T
  0.1981619556638066  0.1984865488246399  0.1402301542867619   T   T   T
  0.2000000029691691  0.0000000000000000  0.0000000000000000   F   F   F
  0.0676993185810275  0.1333848718072304  0.0471407090850349   T   T   T
  0.3336423914962836  0.2667625958086148  0.0939578960146576   T   T   T
  0.2005836528531901  0.0004301532926334  0.1421761918124531   T   T   T
  0.4000000059383453  0.0000000000000000  0.0000000000000000   F   F   F
  0.6666958266462899  0.1341076868994833  0.0471698880657456   T   T   T
  0.5341775696349842  0.2680487200226551  0.0944155701470351   T   T   T
  0.4000744639780649  0.9999328267035779  0.1411237440018169   T   T   T
  0.4000000059828395  0.2000000029901230  0.0000000000000000   F   F   F
  0.6666659471436560  0.3333058815329437  0.0471471434440645   T   T   T
  0.5348096852067314  0.0656135401264919  0.0948328374343745   T   T   T
  0.3996626794702891  0.2000665310724159  0.1410971862386248   T   T   T
  0.6000000238523029  0.2000000029901230  0.0000000000000000   F   F   F
  0.4674587520707760  0.3332586542606748  0.0471696617924309   T   T   T
  0.7331638183702722  0.0667379720037076  0.0939688639435019   T   T   T
  0.5990391034080957  0.1996966184066977  0.1418068546239581   T   T   T
  0.6000000238758432  0.0000000000000000  0.0000000000000000   F   F   F
  0.4667671452867950  0.1326525324679153  0.0480293386596173   T   T   T
  0.7318628140548924  0.2659603878060821  0.0944193464884791   T   T   T
  0.6011867762261645  0.9998469391012037  0.1425180712665934   T   T   T
  0.8000000119447250  0.0000000000000000  0.0000000000000000   F   F   F
  0.9337593339393138  0.2660250577876795  0.0944580858997526   T   T   T
  0.8014539207913600  0.9994910743928074  0.1402594797974430   T   T   T
  0.7999999523200216  0.2000000029901230  0.0000000000000000   F   F   F
  0.9339201038768081  0.0674766993569804  0.0937261563684118   T   T   T
  0.7997812033175080  0.1993755437533906  0.1411105329442321   T   T   T
  0.8673260373111162  0.3340183057314832  0.0480324138270092   T   T   T
  0.8656465760036411  0.1336473770609814  0.0470723115551905   T   T   T
  0.0000000000209468  0.4000000059802389  0.0000000000000000   F   F   F
  0.2684183636952824  0.5340903147489513  0.0475114527280383   T   T   T
  0.1331554467264553  0.6657859758807305  0.0948856503877522   T   T   T
  0.9998025549186096  0.3997352282932738  0.1411048528388008   T   T   T
  0.0000000000055138  0.6000000238188363  0.0000000000000000   F   F   F
  0.2656450174942790  0.7315309597371495  0.0475205493905122   T   T   T
  0.1329601465818726  0.4667959445200012  0.0937395915072514   T   T   T
  0.9999382362896014  0.6009332823569551  0.1425282553341489   T   T   T
  0.2000000178749772  0.6000000238188363  0.0000000000000000   F   F   F
  0.0683467336046917  0.7342758192768386  0.0475941486188702   T   T   T
  0.3340507069418237  0.4672605232977034  0.0948545806528642   T   T   T
  0.1994719006301438  0.5983584469467687  0.1418462590026976   T   T   T
  0.2000000029901230  0.4000000059802389  0.0000000000000000   F   F   F
  0.0657047487411120  0.5336515770769807  0.0472371534030884   T   T   T
  0.3332459815926256  0.6665844174480497  0.0949927304729670   T   T   T
  0.1993376091092358  0.3992020909720324  0.1410806692609725   T   T   T
  0.4000000059592921  0.4000000059802389  0.0000000000000000   F   F   F
  0.6659153769532224  0.5332180030785878  0.0480321224112501   T   T   T
  0.5331553280804826  0.6661210619614621  0.0937451055504610   T   T   T
  0.3987759475629673  0.3987172524579279  0.1424903954180792   T   T   T
  0.4000000357444407  0.6000000238188363  0.0000000000000000   F   F   F
  0.6663008000744597  0.7325395222162925  0.0470652940695544   T   T   T
  0.5308600078810954  0.4651145951133344  0.0948274441266790   T   T   T
  0.4014336183725575  0.6008555854343811  0.1417974126478185   T   T   T
  0.6000000238133225  0.6000000238188363  0.0000000000000000   F   F   F
  0.4657992728528697  0.7342578790165888  0.0475195397226358   T   T   T
  0.7338788446823798  0.4657189134046220  0.0944189088838527   T   T   T
  0.6000026434950456  0.5997664540726078  0.1411212537155819   T   T   T
  0.6000000238287555  0.4000000059802389  0.0000000000000000   F   F   F
  0.4663221510689439  0.5320298342830441  0.0472377743558070   T   T   T
  0.7337997527094302  0.6675668175631486  0.0944642577762380   T   T   T
  0.6006832404770321  0.4007021266392172  0.1418114530285095   T   T   T
  0.8000000118976374  0.4000000059802389  0.0000000000000000   F   F   F
  0.9330967790598237  0.6662308107120936  0.0939788269377360   T   T   T
  0.7999922910958901  0.3990851615167870  0.1418203972674092   T   T   T
  0.8000000118822044  0.6000000238188363  0.0000000000000000   F   F   F
  0.9342196193623664  0.4689923158476645  0.0948367138921853   T   T   T
  0.8004044830948018  0.6001195914217661  0.1411108021063328   T   T   T
  0.8662651765634308  0.7318764041485366  0.0470734394605827   T   T   T
  0.8657997859458817  0.5324847593431272  0.0471760246149771   T   T   T
  0.0000000000419007  0.8000000119604849  0.0000000000000000   F   F   F
  0.2674161723856727  0.9337333877527527  0.0470599034479875   T   T   T
  0.0004193344239098  0.8016093785399718  0.1402650840322082   T   T   T
  0.1350348544761104  0.8678876014193904  0.0941699535094926   T   T   T
  0.3338160648516038  0.8669505233152890  0.0937435868915912   T   T   T
  0.2000000030110698  0.8000000119604849  0.0000000000000000   F   F   F
  0.0657002981812269  0.9322067018910332  0.0471349903994280   T   T   T
  0.1999367642063703  0.8003832941559281  0.1411017907621428   T   T   T
  0.4000000059802389  0.8000000119604849  0.0000000000000000   F   F   F
  0.6659243116976654  0.9315636778706420  0.0475802759416624   T   T   T
  0.3990708847283315  0.8003660818006963  0.1417989719709993   T   T   T
  0.5326933275676993  0.8667304554576845  0.0948663680687218   T   T   T
  0.7329568708403045  0.8649221136657772  0.0941676181833699   T   T   T
  0.6000000238497023  0.8000000119604849  0.0000000000000000   F   F   F
  0.4679134551760384  0.9342379480548502  0.0472388193184443   T   T   T
  0.6007149052911771  0.7999384448200431  0.1410974182309133   T   T   T
  0.8000000119185842  0.8000000119604849  0.0000000000000000   F   F   F
  0.8000590500596800  0.7993387937512821  0.1421909875595802   T   T   T
  0.9323689047434627  0.8661488168303393  0.0937222688283796   T   T   T
  0.8665379555262547  0.9342240673829920  0.0471438406957105   T   T   T
  0.1669255005418506  0.0627043149637032  0.3509606369332658   T   T   T
  0.1716428791143088  0.0641565645070798  0.1984647474732242   T   T   T
  0.3947716489968371  0.3319299826003288  0.3545808346053008   T   T   T
  0.4009999232446404  0.3369727751798237  0.2021900091864097   T   T   T
  0.1044446359794193  0.1675814323107048  0.2734465615074342   T   T   T
  0.0626401185614114  0.3980260733289001  0.2771973227034223   T   T   T
  0.1675583991465928  0.1045125385342232  0.2734500979215255   T   T   T
  0.3979970313447865  0.0626784706815045  0.2772913207247996   T   T   T
  0.0626653435951425  0.1669203101596608  0.3509473721382577   T   T   T
  0.0638712756764335  0.1716036736953015  0.1984363984230271   T   T   T
  0.3318912010988697  0.3948665336494130  0.3545835973572622   T   T   T
  0.3370672614002430  0.4008464708787898  0.2020635283061409   T   T   T
  0.1696095735690477  0.9999634637322501  0.3066626524924558   T   T   T
  0.2346810347997277  0.9999947969023353  0.2800612429888432   T   T   T
  0.3220136362946491  0.3222481528890313  0.3104923144043283   T   T   T
  0.2636722846444783  0.2637858550543726  0.2819403685181712   T   T   T
  0.9998821930372657  0.1696696827591850  0.3066458161105174   T   T   T
  0.9999033007990050  0.2346903157108358  0.2800324417122937   T   T   T
  0.3133455648108097  0.9994316951876385  0.3871133201882344   T   T   T
  0.3375124948717243  0.0000621194685948  0.2328483752861459   T   T   T
  0.2613417911461937  0.9998704905297515  0.3582359088764022   T   T   T
  0.2753682719419928  0.0001821467562806  0.2057290250819435   T   T   T
  0.1665462739172696  0.1666032780623752  0.3850927315118682   T   T   T
  0.1736081930937772  0.1737313243013219  0.2298140036964540   T   T   T
  0.2341148597695408  0.2341695822334131  0.3590698945799886   T   T   T
  0.2372877729579628  0.2372993205069562  0.2029734294009842   T   T   T
  0.0001921934390907  0.3137645363050936  0.3870996343781528   T   T   T
  0.9998887442638917  0.3375526633455124  0.2327749691468952   T   T   T
  0.0000041697379487  0.2614434828584606  0.3582228454227590   T   T   T
  0.9998801601029896  0.2753182269353118  0.2056718816992529   T   T   T
  0.6688004858123975  0.0632485922109467  0.3545130355395187   T   T   T
  0.6627404499785499  0.0635605812936433  0.2021974158970750   T   T   T
  0.8962258624611792  0.3317500831647209  0.3556700230565610   T   T   T
  0.8932425306077008  0.3413122867496199  0.2008576965017710   T   T   T
  0.4353089606434040  0.1037304744066958  0.3557047801746123   T   T   T
  0.4480523588891572  0.1064422962006191  0.2008709836722105   T   T   T
  0.6048788472155877  0.1663961797433657  0.2795643531792678   T   T   T
  0.5616111152880379  0.3948556875667109  0.2795524218030607   T   T   T
  0.4347621060709486  0.3303407463859358  0.2792785862398333   T   T   T
  0.6695628492510508  0.1041797559891720  0.2793173332329104   T   T   T
  0.8956681431916778  0.0631504999576720  0.2733798210879854   T   T   T
  0.5616561952448436  0.1657610349084280  0.3557294449661796   T   T   T
  0.5737438527745411  0.1711926949136213  0.2043800872583574   T   T   T
  0.8344887018853839  0.3963362806541113  0.3557390532611251   T   T   T
  0.8281785706887206  0.4019431148009289  0.2043818137350044   T   T   T
  0.6782918197230643  0.9998372578925725  0.3104764830785598   T   T   T
  0.7364690795392406  0.9998991112757949  0.2818783081407403   T   T   T
  0.8324220255165855  0.3311974020535757  0.3117704881300298   T   T   T
  0.7677791792545037  0.2675788992790658  0.2848249212673650   T   T   T
  0.4984445834908087  0.1673730186741977  0.3117974566695167   T   T   T
  0.4996381605142730  0.2319541803834042  0.2848214259437540   T   T   T
  0.8337219782571879  0.0003584955519358  0.3853040853508958   T   T   T
  0.8263726633748263  0.9999206723697185  0.2297501251004022   T   T   T
  0.7663832038466794  0.0003134209829909  0.3592068217725526   T   T   T
  0.7626088885845874  0.9998044519740361  0.2029286554544996   T   T   T
  0.6758753026766087  0.1723852922131002  0.3879657961858740   T   T   T
  0.6772585754128997  0.1720944702530005  0.2367630787237403   T   T   T
  0.7361469005079257  0.2358248946629331  0.3608485945063933   T   T   T
  0.7376777498099969  0.2378263994847813  0.2091487098040901   T   T   T
  0.4965041095015934  0.3241401649771802  0.3880298118385284   T   T   T
  0.4950986292087407  0.3224592952244905  0.2367212399286913   T   T   T
  0.4994393071675418  0.2638841750814933  0.3608858322280923   T   T   T
  0.5004656662014568  0.2620736701876680  0.2091064033421901   T   T   T
  0.1658076029689894  0.5616673157240868  0.3555939680830349   T   T   T
  0.1709440327514287  0.5737177432172018  0.2041806456192532   T   T   T
  0.3961898997873803  0.8343990968697454  0.3556202994501518   T   T   T
  0.4018884902517357  0.8285042128614961  0.2041509450358845   T   T   T
  0.3303239584793474  0.4348585754124628  0.2790945621618874   T   T   T
  0.1042573414915466  0.6696359016128710  0.2791780460243700   T   T   T
  0.0631895205522923  0.8957395131323196  0.2733908538057435   T   T   T
  0.1664370336886947  0.6049454905420077  0.2793690081463183   T   T   T
  0.3948506930852389  0.5616623835521253  0.2793195273225635   T   T   T
  0.0632709842311385  0.6688228933821563  0.3545221731907802   T   T   T
  0.0633823448490887  0.6626977456512293  0.2021095831832582   T   T   T
  0.3315707997635542  0.8960831594018543  0.3555612056862074   T   T   T
  0.3413525462755658  0.8938019785613847  0.2008323023636152   T   T   T
  0.1038426381495512  0.4353426322264227  0.3555736241855101   T   T   T
  0.1060201397425615  0.4479402554398959  0.2007347226583676   T   T   T
  0.1676043017491082  0.4985939469945535  0.3116354642615704   T   T   T
  0.2320461047557387  0.4997402575965140  0.2846284039468259   T   T   T
  0.3311419040370893  0.8322224213303642  0.3116449730490700   T   T   T
  0.2675816001943261  0.7677429064269461  0.2846709141644155   T   T   T
  0.0002019994437958  0.6785273495265898  0.3104902788953936   T   T   T
  0.0000790518528717  0.7365849256671169  0.2818861320638462   T   T   T
  0.3241739872244622  0.4969433058253756  0.3879533939458355   T   T   T
  0.3223945721784744  0.4952049770868570  0.2364594673531357   T   T   T
  0.2639049310123980  0.4995550521756797  0.3607743503409822   T   T   T
  0.2619557487162396  0.5004340692604785  0.2088527200687338   T   T   T
  0.1726388799201786  0.6757516046440557  0.3878945272533940   T   T   T
  0.1722315769114644  0.6773693639786558  0.2365684683155678   T   T   T
  0.2357885387257639  0.7360710310870715  0.3607486378541580   T   T   T
  0.2378175597094838  0.7378973250671237  0.2089507499114660   T   T   T
  0.0003566795795038  0.8337619824477756  0.3853133932046049   T   T   T
  0.0001761661125528  0.8265048575103791  0.2297576675702331   T   T   T
  0.0003377885685438  0.7664350743302393  0.3592154433781900   T   T   T
  0.9998707688149651  0.7626455163234667  0.2029346807569254   T   T   T
  0.6685846309881285  0.5647569583572434  0.3556767065653119   T   T   T
  0.6584283085685740  0.5521847721106070  0.2010014151515094   T   T   T
  0.8961958858605001  0.8336810467988016  0.3510998795627174   T   T   T
  0.8925369471123048  0.8284078390165561  0.1984580183622313   T   T   T
  0.4383280008213433  0.6043811883502599  0.3556734158182664   T   T   T
  0.4264975710524226  0.5974103904670187  0.2041358852847992   T   T   T
  0.8332807553872570  0.4384662406361386  0.2795287882179665   T   T   T
  0.6019493207902400  0.6647906013786979  0.2773646124847460   T   T   T
  0.5652879309393199  0.8954944314036979  0.2791041275264661   T   T   T
  0.4384455531772034  0.8332765038043277  0.2793059856735312   T   T   T
  0.6647679616506110  0.6019408613391022  0.2774143446135682   T   T   T
  0.8955566931464745  0.5653631964963779  0.2793001161080255   T   T   T
  0.5646705802909153  0.6687410437806776  0.3555515599720778   T   T   T
  0.5524014997201760  0.6582773088847773  0.2008923488232455   T   T   T
  0.8336977458158543  0.8962395713603826  0.3510895808285497   T   T   T
  0.8284663343766923  0.8922631791020734  0.1984141209244328   T   T   T
  0.6042730412145261  0.4383942676341448  0.3558054625017562   T   T   T
  0.5975532351048116  0.4263888793056907  0.2043850419278712   T   T   T
  0.6688670498708476  0.5012392359129834  0.3118342532717620   T   T   T
  0.7323197712281484  0.5002689092437507  0.2848464277172340   T   T   T
  0.8308421078559434  0.8308120682438656  0.3067153649401320   T   T   T
  0.7655405593326066  0.7655034604072881  0.2801716908631704   T   T   T
  0.5010538454209978  0.6690075949220073  0.3116783828661340   T   T   T
  0.5001961981152263  0.7323839199202808  0.2846539701416120   T   T   T
  0.8283276016910293  0.5041100109892653  0.3880090843573001   T   T   T
  0.8272727891436418  0.5047714409173736  0.2367252662400077   T   T   T
  0.7648331847391177  0.5009400149813530  0.3609019482652300   T   T   T
  0.7614538303108347  0.4994582783562862  0.2091256243681769   T   T   T
  0.6862810495877696  0.6867525833830044  0.3870439799314980   T   T   T
  0.6627515856912538  0.6627270179286597  0.2330196774708639   T   T   T
  0.7388100584671520  0.7389321739560657  0.3582019151106550   T   T   T
  0.7248750460989228  0.7247610453479965  0.2058593232755896   T   T   T
  0.5036666149402294  0.8280401994834889  0.3879215601505237   T   T   T
  0.5045631186167014  0.8270796310291786  0.2364562330116939   T   T   T
  0.5007652348247689  0.7648259005144240  0.3607822772788651   T   T   T
  0.4994069267230685  0.7613804963069484  0.2088566337942979   T   T   T
  0.9375970285320605  0.1043353782555343  0.3510519655419415   T   T   T
  0.9359244618719060  0.1075428232726452  0.1984444007444353   T   T   T
  0.9370118617784229  0.3352160580632031  0.2772334427841372   T   T   T
  0.9374948879227176  0.6060303549885120  0.3545521962738718   T   T   T
  0.9356069046803412  0.5987304978198438  0.2021805169942965   T   T   T
  0.9370370238302428  0.8326614858655290  0.2733974100798662   T   T   T
  0.3351936923812104  0.9370372864241219  0.2772290917031981   T   T   T
  0.1042875062279194  0.9376349292168840  0.3510589453616504   T   T   T
  0.1077900823190419  0.9362145225509835  0.1984153755044886   T   T   T
  0.8326741206478090  0.9369937473397343  0.2734006242209475   T   T   T
  0.6059166282935280  0.9374721348975257  0.3545401957170569   T   T   T
  0.5987712375331640  0.9357739439503305  0.2020560307887109   T   T   T
  0.1684104932982464  0.0000482494912930  0.2865473539417351   T   T   T
  0.1685308504758325  0.0000432550208700  0.3434388313512571   T   T   T
  0.1760718830027912  0.0002541098345787  0.1932703539365974   T   T   T
  0.3272934345029697  0.3274687460466765  0.2904545918275687   T   T   T
  0.3307250980547849  0.3308007257865384  0.3471020429624971   T   T   T
  0.3407065120891701  0.3404603797349992  0.1934934115227236   T   T   T
  0.9999587381062511  0.1684393284807228  0.2865311782556859   T   T   T
  0.0000169613472991  0.1685569712583614  0.3434281537894037   T   T   T
  0.9998662057370851  0.1758631802673207  0.1932610158331798   T   T   T
  0.3244743314909471  0.9997350181162403  0.3674863957508876   T   T   T
  0.3403862985419437  0.0000944135199106  0.2127238817560198   T   T   T
  0.3349615061501012  0.9999093214853474  0.2692923608855864   T   T   T
  0.1668577317105786  0.1668888162500792  0.3651871146139953   T   T   T
  0.1712383489863214  0.1713892072735632  0.2096624383941261   T   T   T
  0.1700520902408726  0.1701034459589721  0.2665651561695341   T   T   T
  0.0000191174477706  0.3246542870964717  0.3674726924299989   T   T   T
  0.9999048946244855  0.3404062917798854  0.2126504302075247   T   T   T
  0.9997896589622428  0.3349655846406279  0.2692387534801881   T   T   T
  0.6728125301210923  0.9997455510207374  0.2904425884883466   T   T   T
  0.6700636825036241  0.0003415426448612  0.3470758405287597   T   T   T
  0.6591921141360118  0.9997768706796890  0.1934815368297222   T   T   T
  0.8336765659856908  0.3336459586494840  0.2916682637210997   T   T   T
  0.8325566577223498  0.3318060246476193  0.3483358969216610   T   T   T
  0.8246364693675829  0.3370242320020012  0.1964419241411193   T   T   T
  0.4996714124701782  0.1660165078651303  0.2916956791514522   T   T   T
  0.4989057361464688  0.1674580440590816  0.3483462120798109   T   T   T
  0.5124934849182878  0.1748923048648692  0.1964142791765369   T   T   T
  0.8335839833679231  0.0003185651167996  0.3653983049215981   T   T   T
  0.8286549114120447  0.9999042448316473  0.2095965555392922   T   T   T
  0.8301516016291046  0.0000250264635753  0.2664734913220173   T   T   T
  0.6704440282841091  0.1695249355543353  0.3681239967243286   T   T   T
  0.6752572144647289  0.1691706108811601  0.2166521837527924   T   T   T
  0.6709191702377524  0.1695941909550882  0.2727360493717015   T   T   T
  0.4991125144430555  0.3296869886767695  0.3681909144128639   T   T   T
  0.4942324439258527  0.3244856067441972  0.2166101730212873   T   T   T
  0.4987641362462440  0.3288710999224591  0.2726993013870427   T   T   T
  0.1661769503477686  0.4998110696305531  0.2915342577841997   T   T   T
  0.1675275779457195  0.4989436808099157  0.3481982609942804   T   T   T
  0.1744320030151414  0.5123504791585916  0.1962021388266777   T   T   T
  0.3336422376407242  0.8335641181325002  0.2915425120988502   T   T   T
  0.3316612399503285  0.8324554969084943  0.3482078574290597   T   T   T
  0.3370196671524610  0.8252619781430184  0.1962682521846588   T   T   T
  0.0000340268439487  0.6729903991917894  0.2904567166237868   T   T   T
  0.0003865140544193  0.6701437595103030  0.3470859262843931   T   T   T
  0.9994099728628854  0.6590193212790254  0.1934874195176519   T   T   T
  0.3297001251701843  0.4992841106489649  0.3681143943785088   T   T   T
  0.3244068531229729  0.4943346134386601  0.2163471631210641   T   T   T
  0.3289340058622443  0.4988137484758894  0.2724413075169352   T   T   T
  0.1695464924231516  0.6703662905081913  0.3680523414955061   T   T   T
  0.1693134429925394  0.6753468328557659  0.2164563923661404   T   T   T
  0.1695751053533741  0.6709457482401362  0.2725325969101178   T   T   T
  0.0002928553636892  0.8336125564792383  0.3654076224272558   T   T   T
  0.0001830941785741  0.8287976546825746  0.2096038084778229   T   T   T
  0.0001073077364850  0.8301996639144065  0.2664759308937761   T   T   T
  0.6662615154903833  0.5000382453271470  0.2917327420020399   T   T   T
  0.6686870707221075  0.5010646458155108  0.3483807839330666   T   T   T
  0.6624629885144131  0.4878193242317082  0.1964653922285464   T   T   T
  0.8318957927116060  0.8318596496715855  0.2865993524119190   T   T   T
  0.8320214316334500  0.8320365227169120  0.3434983563240621   T   T   T
  0.8241568774176855  0.8239335377555648  0.1932911998175371   T   T   T
  0.4999272859374955  0.6663590019047305  0.2915774304713707   T   T   T
  0.5009745018025100  0.6687962450298244  0.3482392484274826   T   T   T
  0.4880789309897651  0.6622640260435233  0.1962346916516182   T   T   T
  0.8311786445173581  0.5016066543022433  0.3681656630259553   T   T   T
  0.8300232018292846  0.5054235065605752  0.2166137994443460   T   T   T
  0.8301341443879267  0.5013446698967954  0.2727074554154640   T   T   T
  0.6755134419187385  0.6757256512025336  0.3674127979102551   T   T   T
  0.6598153839128287  0.6598045242897257  0.2128955913688770   T   T   T
  0.6651265643934963  0.6650825601139516  0.2694560437961684   T   T   T
  0.5013765259371183  0.8311126367315111  0.3680785318567175   T   T   T
  0.5051611241545544  0.8298139400617117  0.2163440451180918   T   T   T
  0.5013065941321244  0.8301894469801852  0.2724458123775051   T   T   T
 
  0.00000000E+00  0.00000000E+00  0.00000000E+00
  0.00000000E+00  0.00000000E+00  0.00000000E+00
  0.00000000E+00  0.00000000E+00  0.00000000E+00
  0.00000000E+00  0.00000000E+00  0.00000000E+00
  0.00000000E+00  0.00000000E+00  0.00000000E+00
  0.00000000E+00  0.00000000E+00  0.00000000E+00
  0.00000000E+00  0.00000000E+00  0.00000000E+00
  0.00000000E+00  0.00000000E+00  0.00000000E+00
  0.00000000E+00  0.00000000E+00  0.00000000E+00
  0.00000000E+00  0.00000000E+00  0.00000000E+00
  0.00000000E+00  0.00000000E+00  0.00000000E+00
  0.00000000E+00  0.00000000E+00  0.00000000E+00
  0.00000000E+00  0.00000000E+00  0.00000000E+00
  0.00000000E+00  0.00000000E+00  0.00000000E+00
  0.00000000E+00  0.00000000E+00  0.00000000E+00
  0.00000000E+00  0.00000000E+00  0.00000000E+00
  0.00000000E+00  0.00000000E+00  0.00000000E+00
  0.00000000E+00  0.00000000E+00  0.00000000E+00
  0.00000000E+00  0.00000000E+00  0.00000000E+00
  0.00000000E+00  0.00000000E+00  0.00000000E+00
  0.00000000E+00  0.00000000E+00  0.00000000E+00
  0.00000000E+00  0.00000000E+00  0.00000000E+00
  0.00000000E+00  0.00000000E+00  0.00000000E+00
  0.00000000E+00  0.00000000E+00  0.00000000E+00
  0.00000000E+00  0.00000000E+00  0.00000000E+00
  0.00000000E+00  0.00000000E+00  0.00000000E+00
  0.00000000E+00  0.00000000E+00  0.00000000E+00
  0.00000000E+00  0.00000000E+00  0.00000000E+00
  0.00000000E+00  0.00000000E+00  0.00000000E+00
  0.00000000E+00  0.00000000E+00  0.00000000E+00
  0.00000000E+00  0.00000000E+00  0.00000000E+00
  0.00000000E+00  0.00000000E+00  0.00000000E+00
  0.00000000E+00  0.00000000E+00  0.00000000E+00
  0.00000000E+00  0.00000000E+00  0.00000000E+00
  0.00000000E+00  0.00000000E+00  0.00000000E+00
  0.00000000E+00  0.00000000E+00  0.00000000E+00
  0.00000000E+00  0.00000000E+00  0.00000000E+00
  0.00000000E+00  0.00000000E+00  0.00000000E+00
  0.00000000E+00  0.00000000E+00  0.00000000E+00
  0.00000000E+00  0.00000000E+00  0.00000000E+00
  0.00000000E+00  0.00000000E+00  0.00000000E+00
  0.00000000E+00  0.00000000E+00  0.00000000E+00
  0.00000000E+00  0.00000000E+00  0.00000000E+00
  0.00000000E+00  0.00000000E+00  0.00000000E+00
  0.00000000E+00  0.00000000E+00  0.00000000E+00
  0.00000000E+00  0.00000000E+00  0.00000000E+00
  0.00000000E+00  0.00000000E+00  0.00000000E+00
  0.00000000E+00  0.00000000E+00  0.00000000E+00
  0.00000000E+00  0.00000000E+00  0.00000000E+00
  0.00000000E+00  0.00000000E+00  0.00000000E+00
  0.00000000E+00  0.00000000E+00  0.00000000E+00
  0.00000000E+00  0.00000000E+00  0.00000000E+00
  0.00000000E+00  0.00000000E+00  0.00000000E+00
  0.00000000E+00  0.00000000E+00  0.00000000E+00
  0.00000000E+00  0.00000000E+00  0.00000000E+00
  0.00000000E+00  0.00000000E+00  0.00000000E+00
  0.00000000E+00  0.00000000E+00  0.00000000E+00
  0.00000000E+00  0.00000000E+00  0.00000000E+00
  0.00000000E+00  0.00000000E+00  0.00000000E+00
  0.00000000E+00  0.00000000E+00  0.00000000E+00
  0.00000000E+00  0.00000000E+00  0.00000000E+00
  0.00000000E+00  0.00000000E+00  0.00000000E+00
  0.00000000E+00  0.00000000E+00  0.00000000E+00
  0.00000000E+00  0.00000000E+00  0.00000000E+00
  0.00000000E+00  0.00000000E+00  0.00000000E+00
  0.00000000E+00  0.00000000E+00  0.00000000E+00
  0.00000000E+00  0.00000000E+00  0.00000000E+00
  0.00000000E+00  0.00000000E+00  0.00000000E+00
  0.00000000E+00  0.00000000E+00  0.00000000E+00
  0.00000000E+00  0.00000000E+00  0.00000000E+00
  0.00000000E+00  0.00000000E+00  0.00000000E+00
  0.00000000E+00  0.00000000E+00  0.00000000E+00
  0.00000000E+00  0.00000000E+00  0.00000000E+00
  0.00000000E+00  0.00000000E+00  0.00000000E+00
  0.00000000E+00  0.00000000E+00  0.00000000E+00
  0.00000000E+00  0.00000000E+00  0.00000000E+00
  0.00000000E+00  0.00000000E+00  0.00000000E+00
  0.00000000E+00  0.00000000E+00  0.00000000E+00
  0.00000000E+00  0.00000000E+00  0.00000000E+00
  0.00000000E+00  0.00000000E+00  0.00000000E+00
  0.00000000E+00  0.00000000E+00  0.00000000E+00
  0.00000000E+00  0.00000000E+00  0.00000000E+00
  0.00000000E+00  0.00000000E+00  0.00000000E+00
  0.00000000E+00  0.00000000E+00  0.00000000E+00
  0.00000000E+00  0.00000000E+00  0.00000000E+00
  0.00000000E+00  0.00000000E+00  0.00000000E+00
  0.00000000E+00  0.00000000E+00  0.00000000E+00
  0.00000000E+00  0.00000000E+00  0.00000000E+00
  0.00000000E+00  0.00000000E+00  0.00000000E+00
  0.00000000E+00  0.00000000E+00  0.00000000E+00
  0.00000000E+00  0.00000000E+00  0.00000000E+00
  0.00000000E+00  0.00000000E+00  0.00000000E+00
  0.00000000E+00  0.00000000E+00  0.00000000E+00
  0.00000000E+00  0.00000000E+00  0.00000000E+00
  0.00000000E+00  0.00000000E+00  0.00000000E+00
  0.00000000E+00  0.00000000E+00  0.00000000E+00
  0.00000000E+00  0.00000000E+00  0.00000000E+00
  0.00000000E+00  0.00000000E+00  0.00000000E+00
  0.00000000E+00  0.00000000E+00  0.00000000E+00
  0.00000000E+00  0.00000000E+00  0.00000000E+00
  0.00000000E+00  0.00000000E+00  0.00000000E+00
  0.00000000E+00  0.00000000E+00  0.00000000E+00
  0.00000000E+00  0.00000000E+00  0.00000000E+00
  0.00000000E+00  0.00000000E+00  0.00000000E+00
  0.00000000E+00  0.00000000E+00  0.00000000E+00
  0.00000000E+00  0.00000000E+00  0.00000000E+00
  0.00000000E+00  0.00000000E+00  0.00000000E+00
  0.00000000E+00  0.00000000E+00  0.00000000E+00
  0.00000000E+00  0.00000000E+00  0.00000000E+00
  0.00000000E+00  0.00000000E+00  0.00000000E+00
  0.00000000E+00  0.00000000E+00  0.00000000E+00
  0.00000000E+00  0.00000000E+00  0.00000000E+00
  0.00000000E+00  0.00000000E+00  0.00000000E+00
  0.00000000E+00  0.00000000E+00  0.00000000E+00
  0.00000000E+00  0.00000000E+00  0.00000000E+00
  0.00000000E+00  0.00000000E+00  0.00000000E+00
  0.00000000E+00  0.00000000E+00  0.00000000E+00
  0.00000000E+00  0.00000000E+00  0.00000000E+00
  0.00000000E+00  0.00000000E+00  0.00000000E+00
  0.00000000E+00  0.00000000E+00  0.00000000E+00
  0.00000000E+00  0.00000000E+00  0.00000000E+00
  0.00000000E+00  0.00000000E+00  0.00000000E+00
  0.00000000E+00  0.00000000E+00  0.00000000E+00
  0.00000000E+00  0.00000000E+00  0.00000000E+00
  0.00000000E+00  0.00000000E+00  0.00000000E+00
  0.00000000E+00  0.00000000E+00  0.00000000E+00
  0.00000000E+00  0.00000000E+00  0.00000000E+00
  0.00000000E+00  0.00000000E+00  0.00000000E+00
  0.00000000E+00  0.00000000E+00  0.00000000E+00
  0.00000000E+00  0.00000000E+00  0.00000000E+00
  0.00000000E+00  0.00000000E+00  0.00000000E+00
  0.00000000E+00  0.00000000E+00  0.00000000E+00
  0.00000000E+00  0.00000000E+00  0.00000000E+00
  0.00000000E+00  0.00000000E+00  0.00000000E+00