# 4                                     
   1.00000000000000     
     9.8148999999999997    0.0000000000000000    0.0000000000000000
     0.0000000000000000    9.8148999999999997    0.0000000000000000
     0.0000000000000000    0.0000000000000000    9.8148999999999997
   O    H 
    31    62
Direct
  0.5800782483774682  0.3846091147133421  0.1304954711713791
  0.1267868241143546  0.8106521716981305  0.6080846468125003
  0.0863634881659507  0.5630469999694370  0.7522562634362018
  0.0695415134132773  0.7640475195875638  0.1670602858918571
  0.7486800680597838  0.0186334043138459  0.6993642319330817
  0.7202997483418088  0.3928007417294097  0.7573627851531839
  0.5745132400737631  0.1910931339086517  0.7905653649043813
  0.0137079338556703  0.2135202600128352  0.1837002924125528
  0.2798581748158426  0.8577489327451104  0.9780124097036165
  0.8399097290853703  0.3926356865581937  0.0221145401379559
  0.2723145421756712  0.2127836248968435  0.7057473840793094
  0.9629519404171205  0.3309274674219793  0.6711459108090736
  0.7268642574045572  0.8164219706772329  0.8713282865846850
  0.6768026164301233  0.0438881700272020  0.4344547575624844
  0.3457936402816131  0.6098727445007057  0.8502756013815755
  0.2318362897227715  0.1371883564784184  0.9506709187052351
  0.4661820293635159  0.1406096852744270  0.0920051146725882
  0.6832112400533887  0.6536521003779967  0.4188488930096099
  0.8439922974253449  0.9489653486026342  0.2372810726548380
  0.3417548828821495  0.3631662064819849  0.4400788596929175
  0.4129598875179568  0.1187918369010390  0.3790767099002537
  0.0038701362214582  0.0461026602410612  0.6307501859417854
  0.1453076444996881  0.0363100999500787  0.3732844960213555
  0.3738092084483782  0.8335123129119992  0.4998624540239831
  0.3535889311149347  0.5435103770797483  0.1127581534197972
  0.4655870156598638  0.7350966387838866  0.2620199900151832
  0.5548085054356164  0.6521136231647802  0.7119451038726865
  0.6373503550723925  0.3565589053378062  0.3987080866845290
  0.9345920997666823  0.6535970819875914  0.9517857543123185
  0.6018553423875943  0.9105603724948779  0.0982981996760017
  0.9718438292799689  0.6647576643674427  0.3994610235458325
  0.5339218942628037  0.4701148254184986  0.1217281887742132
  0.6784725264648657  0.4068722045053974  0.0818958929790412
  0.0679365047020326  0.7971757226258021  0.5285739029434851
  0.1133358465190710  0.7250058584397223  0.6686374797501742
  0.0491153246594465  0.4662910472852531  0.7489928577978375
  0.1698458466209516  0.5738428307980712  0.8011258392851701
  0.0396486973886638  0.8496428898918964  0.1890493025909592
  0.0486794567443383  0.7211026092981072  0.2491701392780357
  0.6835922933499035  0.0147458456020928  0.6190455328123576
  0.7198239411507004  0.9386023291118590  0.7484803716797899
  0.6769045023382816  0.4613006755035727  0.7038512873284475
  0.6502715259452430  0.3243486943320875  0.8060734189854202
  0.5138136914283393  0.1674566220746030  0.8670001732060442
  0.6255366840212346  0.1149425872907486  0.7847721321664025
  0.9380570357313900  0.2565487167469840  0.1503530346717739
  0.0459945592925024  0.2584519455114176  0.2786273930452694
  0.2489215376621274  0.9665957880365568  0.9688531722177487
  0.2311984839376890  0.8135987121621184  0.0580248397844088
  0.8043637734464966  0.3997564926795008  0.9292662176894311
  0.8610734699283711  0.4941089567901855  0.0234582114947699
  0.1811113714862103  0.1956280756808511  0.6913845276059902
  0.2952093245983178  0.2744704479923357  0.6323762850360168
  0.9862040367196840  0.2378587657541118  0.6562858511039309
  0.8618508594076388  0.3101396855800900  0.6883727801607762
  0.6851562420401649  0.8452077963096940  0.9588686588757938
  0.7933448124789848  0.7451935322825491  0.9159880385943850
  0.6911940009577293  0.1418058258362294  0.4140419158626187
  0.5644815535563268  0.0500517580413486  0.4157637877105245
  0.3577407818724581  0.5701535420636006  0.9560841170057799
  0.3039175131687557  0.7025716003219600  0.8883330446565907
  0.2355500310751992  0.1927803645477795  0.8566149425872922
  0.1660098421787310  0.1640363121376680  0.0113134112420923
  0.3745560321551906  0.1344017768902361  0.0581505669950815
  0.4763716390386037  0.2365047020346651  0.1158605793232752
  0.6374451089669790  0.6295866488705926  0.5243609206410653
  0.6054284811867703  0.6733384955526773  0.3671530020682852
  0.9038455817175901  0.0325494910798909  0.1847364720985425
  0.7572772009903304  0.9822153053011249  0.3040764551854807
  0.4094122201958257  0.4224301826814312  0.4681789931634555
  0.3904237434920361  0.2674596786518464  0.4210475909077047
  0.3099848189996806  0.0980637602013275  0.3638040122670603
  0.4293543489999934  0.1050331638631050  0.2752040265310924
  0.9034808301663801  0.0218873345627557  0.6428552506902747
  0.0615978766976752  0.9654456999052456  0.6302030586149598
  0.0677859173297719  0.0355749931227010  0.2913886030423143
  0.0747938338648382  0.0489602543072252  0.4672304353584877
  0.2924787822596286  0.7982811847293405  0.5573556531396164
  0.4447279136822573  0.8152390752835004  0.5733894385067586
  0.3942403896117099  0.6184871980356377  0.1581177597326544
  0.2915485639181270  0.4729992154785094  0.1675697154326556
  0.4312382194418660  0.7550622013469308  0.3491151208876317
  0.4872194316804013  0.8068467330283582  0.1992093653526794
  0.5982037514391365  0.6914324139828238  0.7980886203629183
  0.4626425129140372  0.6402265942597509  0.7555848760557922
  0.6177444497651550  0.3770247277099088  0.2991716675666609
  0.6695218494330035  0.4444772743481877  0.3968242162426492
  0.0070982893356017  0.6188458364323637  0.8588778286075254
  0.9904511508013343  0.7082048721841261  0.0275443458415268
  0.5574453127387926  0.0099732040061511  0.0894567443376886
  0.6897665793844041  0.9184035497050402  0.1251760079063473
  0.8700007132013567  0.6533219900355576  0.4084015119868738
  0.0051747852754502  0.5718153012256906  0.4070219767903893
 
  0.00000000E+00  0.00000000E+00  0.00000000E+00
  0.00000000E+00  0.00000000E+00  0.00000000E+00
  0.00000000E+00  0.00000000E+00  0.00000000E+00
  0.00000000E+00  0.00000000E+00  0.00000000E+00
  0.00000000E+00  0.00000000E+00  0.00000000E+00
  0.00000000E+00  0.00000000E+00  0.00000000E+00
  0.00000000E+00  0.00000000E+00  0.00000000E+00
  0.00000000E+00  0.00000000E+00  0.00000000E+00
  0.00000000E+00  0.00000000E+00  0.00000000E+00
  0.00000000E+00  0.00000000E+00  0.00000000E+00
  0.00000000E+00  0.00000000E+00  0.00000000E+00
  0.00000000E+00  0.00000000E+00  0.00000000E+00
  0.00000000E+00  0.00000000E+00  0.00000000E+00
  0.00000000E+00  0.00000000E+00  0.00000000E+00
  0.00000000E+00  0.00000000E+00  0.00000000E+00
  0.00000000E+00  0.00000000E+00  0.00000000E+00
  0.00000000E+00  0.00000000E+00  0.00000000E+00
  0.00000000E+00  0.00000000E+00  0.00000000E+00
  0.00000000E+00  0.00000000E+00  0.00000000E+00
  0.00000000E+00  0.00000000E+00  0.00000000E+00
  0.00000000E+00  0.00000000E+00  0.00000000E+00
  0.00000000E+00  0.00000000E+00  0.00000000E+00
  0.00000000E+00  0.00000000E+00  0.00000000E+00
  0.00000000E+00  0.00000000E+00  0.00000000E+00
  0.00000000E+00  0.00000000E+00  0.00000000E+00
  0.00000000E+00  0.00000000E+00  0.00000000E+00
  0.00000000E+00  0.00000000E+00  0.00000000E+00
  0.00000000E+00  0.00000000E+00  0.00000000E+00
  0.00000000E+00  0.00000000E+00  0.00000000E+00
  0.00000000E+00  0.00000000E+00  0.00000000E+00
  0.00000000E+00  0.00000000E+00  0.00000000E+00
  0.00000000E+00  0.00000000E+00  0.00000000E+00
  0.00000000E+00  0.00000000E+00  0.00000000E+00
  0.00000000E+00  0.00000000E+00  0.00000000E+00
  0.00000000E+00  0.00000000E+00  0.00000000E+00
  0.00000000E+00  0.00000000E+00  0.00000000E+00
  0.00000000E+00  0.00000000E+00  0.00000000E+00
  0.00000000E+00  0.00000000E+00  0.00000000E+00
  0.00000000E+00  0.00000000E+00  0.00000000E+00
  0.00000000E+00  0.00000000E+00  0.00000000E+00
  0.00000000E+00  0.00000000E+00  0.00000000E+00
  0.00000000E+00  0.00000000E+00  0.00000000E+00
  0.00000000E+00  0.00000000E+00  0.00000000E+00
  0.00000000E+00  0.00000000E+00  0.00000000E+00
  0.00000000E+00  0.00000000E+00  0.00000000E+00
  0.00000000E+00  0.00000000E+00  0.00000000E+00
  0.00000000E+00  0.00000000E+00  0.00000000E+00
  0.00000000E+00  0.00000000E+00  0.00000000E+00
  0.00000000E+00  0.00000000E+00  0.00000000E+00
  0.00000000E+00  0.00000000E+00  0.00000000E+00
  0.00000000E+00  0.00000000E+00  0.00000000E+00
  0.00000000E+00  0.00000000E+00  0.00000000E+00
  0.00000000E+00  0.00000000E+00  0.00000000E+00
  0.00000000E+00  0.00000000E+00  0.00000000E+00
  0.00000000E+00  0.00000000E+00  0.00000000E+00
  0.00000000E+00  0.00000000E+00  0.00000000E+00
  0.00000000E+00  0.00000000E+00  0.00000000E+00
  0.00000000E+00  0.00000000E+00  0.00000000E+00
  0.00000000E+00  0.00000000E+00  0.00000000E+00
  0.00000000E+00  0.00000000E+00  0.00000000E+00
  0.00000000E+00  0.00000000E+00  0.00000000E+00
  0.00000000E+00  0.00000000E+00  0.00000000E+00
  0.00000000E+00  0.00000000E+00  0.00000000E+00
  0.00000000E+00  0.00000000E+00  0.00000000E+00
  0.00000000E+00  0.00000000E+00  0.00000000E+00
  0.00000000E+00  0.00000000E+00  0.00000000E+00
  0.00000000E+00  0.00000000E+00  0.00000000E+00
  0.00000000E+00  0.00000000E+00  0.00000000E+00
  0.00000000E+00  0.00000000E+00  0.00000000E+00
  0.00000000E+00  0.00000000E+00  0.00000000E+00
  0.00000000E+00  0.00000000E+00  0.00000000E+00
  0.00000000E+00  0.00000000E+00  0.00000000E+00
  0.00000000E+00  0.00000000E+00  0.00000000E+00
  0.00000000E+00  0.00000000E+00  0.00000000E+00
  0.00000000E+00  0.00000000E+00  0.00000000E+00
  0.00000000E+00  0.00000000E+00  0.00000000E+00
  0.00000000E+00  0.00000000E+00  0.00000000E+00
  0.00000000E+00  0.00000000E+00  0.00000000E+00
  0.00000000E+00  0.00000000E+00  0.00000000E+00
  0.00000000E+00  0.00000000E+00  0.00000000E+00
  0.00000000E+00  0.00000000E+00  0.00000000E+00
  0.00000000E+00  0.00000000E+00  0.00000000E+00
  0.00000000E+00  0.00000000E+00  0.00000000E+00
  0.00000000E+00  0.00000000E+00  0.00000000E+00
  0.00000000E+00  0.00000000E+00  0.00000000E+00
  0.00000000E+00  0.00000000E+00  0.00000000E+00
  0.00000000E+00  0.00000000E+00  0.00000000E+00
  0.00000000E+00  0.00000000E+00  0.00000000E+00
  0.00000000E+00  0.00000000E+00  0.00000000E+00
  0.00000000E+00  0.00000000E+00  0.00000000E+00
  0.00000000E+00  0.00000000E+00  0.00000000E+00
  0.00000000E+00  0.00000000E+00  0.00000000E+00
  0.00000000E+00  0.00000000E+00  0.00000000E+00
