au_111_4_layers_5x5_with_h2o_6_bilayers_
   1.00000000000000     
    14.6976995467999991    0.0000000000000000    0.0000000000000000
    -7.3488497733999996   12.7285811846999994    0.0000000000000000
     0.0000000000000000    0.0000000000000000   49.2004013061999999
   Au   H    O 
   100   288   144
Selective dynamics
Direct
  0.0000000000000000  0.0000000000000000  0.0000000000000000   F   F   F
  0.2675890788848175  0.1338769588633251  0.0478225967223965   T   T   T
  0.1312997647372934  0.2658152249095138  0.0955085226990748   T   T   T
 -0.0000005299865054 -0.0000040741513252  0.1420819707690385   T   T   T
  0.9999999999764526  0.2000000029901230  0.0000000000000000   F   F   F
  0.2651470579667036  0.3335377584236749  0.0484082002181409   T   T   T
  0.1337170001512976  0.0659960774650740  0.0951739249567694   T   T   T
 -0.0000148288445834  0.1986323470476900  0.1449951892499875   T   T   T
  0.2000000030136633  0.2000000029901230  0.0000000000000000   F   F   F
  0.0659910010832896  0.3327913090764353  0.0476542794986199   T   T   T
  0.3299613978159530  0.0647710277808043  0.0958033029491586   T   T   T
  0.1991126711694450  0.1990903084856907  0.1418551183514905   T   T   T
  0.2000000029691691  0.0000000000000000  0.0000000000000000   F   F   F
  0.0676997170935494  0.1331265315847174  0.0481085597801093   T   T   T
  0.3336260648166636  0.2666315710825442  0.0948388725135357   T   T   T
  0.1986422416015182  0.0000119866712693  0.1449959176878024   T   T   T
  0.4000000059383453  0.0000000000000000  0.0000000000000000   F   F   F
  0.6662431276746915  0.1339185318503668  0.0476295423612799   T   T   T
  0.5337306096847332  0.2679483892948136  0.0950693537973957   T   T   T
  0.3997089394761483 -0.0001614120088242  0.1420780546765291   T   T   T
  0.4000000059828395  0.2000000029901230  0.0000000000000000   F   F   F
  0.6666637457642013  0.3333434978681258  0.0474565370875507   T   T   T
  0.5345389036539098  0.0650487315940865  0.0956723949095384   T   T   T
  0.3989996663460743  0.1993831508316171  0.1420488212826092   T   T   T
  0.6000000238523029  0.2000000029901230  0.0000000000000000   F   F   F
  0.4676861932916672  0.3337571545510870  0.0476326500399703   T   T   T
  0.7333597065922228  0.0669775332607143  0.0948403243636031   T   T   T
  0.5992293759911580  0.1993618888787720  0.1425447678291253   T   T   T
  0.6000000238758432  0.0000000000000000  0.0000000000000000   F   F   F
  0.4658651359032970  0.1323604208434853  0.0490010596225383   T   T   T
  0.7320490117710866  0.2657857603469743  0.0950698536306793   T   T   T
  0.6013769792872381  0.0000817098114204  0.1441201213334984   T   T   T
  0.8000000119447250  0.0000000000000000  0.0000000000000000   F   F   F
  0.9352333243648283  0.2652010248492454  0.0958012655792233   T   T   T
  0.8009118003238686  0.0000240186407466  0.1418561820725940   T   T   T
  0.7999999523200216  0.2000000029901230  0.0000000000000000   F   F   F
  0.9339974294162868  0.0677172370705677  0.0951742420939431   T   T   T
  0.8006215964588127  0.1996217528586350  0.1420471991106861   T   T   T
  0.8676321504279325  0.3335114686602647  0.0490006355388922   T   T   T
  0.8661206919066414  0.1337206509629032  0.0478238220290141   T   T   T
  0.0000000000209468  0.4000000059802389  0.0000000000000000   F   F   F
  0.2684819269099429  0.5339324233523723  0.0480873852921752   T   T   T
  0.1325409466392667  0.6658768458579424  0.0956743814750462   T   T   T
  0.0001609916130582  0.3998717626965470  0.1420781173515010   T   T   T
  0.0000000000055138  0.6000000238188363  0.0000000000000000   F   F   F
  0.2654498776415368  0.7315209341081926  0.0480898396350998   T   T   T
  0.1329359397670253  0.4661329450309924  0.0944714273117363   T   T   T
 -0.0000812902992970  0.6013009267302550  0.1441184308896503   T   T   T
  0.2000000178749772  0.6000000238188363  0.0000000000000000   F   F   F
  0.0683754915973104  0.7348462375637900  0.0484062673112405   T   T   T
  0.3341313423753589  0.4666678881108571  0.0956731372222383   T   T   T
  0.1991820878982493  0.5989665918093697  0.1425201258934279   T   T   T
  0.2000000029901230  0.4000000059802389  0.0000000000000000   F   F   F
  0.0656874849930079  0.5337145903601538  0.0477434602141332   T   T   T
  0.3333481465861481  0.6666512262760890  0.0954080037346586   T   T   T
  0.1992134270744118  0.3989704088822781  0.1420921944770625   T   T   T
  0.4000000059592921  0.4000000059802389  0.0000000000000000   F   F   F
  0.6664956464633260  0.5341316204379104  0.0490007050314591   T   T   T
  0.5338777492605979  0.6668108126587909  0.0944704518505741   T   T   T
  0.3987047880915877  0.3986225284315408  0.1441181153330393   T   T   T
  0.4000000357444407  0.6000000238188363  0.0000000000000000   F   F   F
  0.6672117923531247  0.7332228786794173  0.0476489919024575   T   T   T
  0.5305088420593838  0.4654625169669475  0.0956716421189108   T   T   T
  0.4010324596306543  0.6002116574812365  0.1425213655578753   T   T   T
  0.6000000238133225  0.6000000238188363  0.0000000000000000   F   F   F
  0.4660718101112193  0.7345515613878764  0.0480873072582805   T   T   T
  0.7342180415417280  0.4662645301747338  0.0950687254667339   T   T   T
  0.6001317631548068  0.6002952001520010  0.1420759244641427   T   T   T
  0.6000000238287555  0.4000000059802389  0.0000000000000000   F   F   F
  0.4662830742987613  0.5319673463305317  0.0477419941449541   T   T   T
  0.7348041484310396  0.6700390726573628  0.0958012201700670   T   T   T
  0.6001328876413305  0.4007780292151624  0.1425448323118442   T   T   T
  0.8000000118976374  0.4000000059802389  0.0000000000000000   F   F   F
  0.9330166102148491  0.6663783977185426  0.0948406811022741   T   T   T
  0.8006438275514587  0.3998717200080740  0.1425443245289106   T   T   T
  0.8000000118822044  0.6000000238188363  0.0000000000000000   F   F   F
  0.9349558767840508  0.4694910022555665  0.0956715155184200   T   T   T
  0.8003807096525003  0.6010016185505657  0.1420471795868488   T   T   T
  0.8662846743504987  0.7324024766852948  0.0478223082480270   T   T   T
  0.8660747973022043  0.5323240286248456  0.0476325013841463   T   T   T
  0.0000000000419007  0.8000000119604849  0.0000000000000000   F   F   F
  0.2667779576441424  0.9339927625193488  0.0476511280911161   T   T   T
 -0.0000287142825992  0.8008854659311753  0.1418551997339775   T   T   T
  0.1345103704628239  0.8687006673219636  0.0955096804729476   T   T   T
  0.3332021248181237  0.8670722506765534  0.0944715542149324   T   T   T
  0.2000000030110698  0.8000000119604849  0.0000000000000000   F   F   F
  0.0654209927209553  0.9322944214314933  0.0481077247752789   T   T   T
  0.1997570166165823  0.8007847330633140  0.1420918810640922   T   T   T
  0.4000000059802389  0.8000000119604849  0.0000000000000000   F   F   F
  0.6664688188016650  0.9316185335975684  0.0484070415639486   T   T   T
  0.3997773258918122  0.8008180032880343  0.1425189066155375   T   T   T
  0.5333358231540201  0.8674494518598647  0.0956719111654369   T   T   T
  0.7341837217941948  0.8654848073726968  0.0955074737267293   T   T   T
  0.6000000238497023  0.8000000119604849  0.0000000000000000   F   F   F
  0.4680328489566868  0.9343221333142003  0.0477424347074677   T   T   T
  0.6010158952919320  0.8002458689211750  0.1420909870461010   T   T   T
  0.8000000119185842  0.8000000119604849  0.0000000000000000   F   F   F
  0.8013652963736161  0.8013507648082530  0.1449933639266823   T   T   T
  0.9322804394111567  0.8662776052624793  0.0951744424075600   T   T   T
  0.8668721129468197  0.9345764387505310  0.0481082878534483   T   T   T
  0.1656438389787939  0.0630607708713028  0.5330291950379489   T   T   T
  0.1655741276071792  0.0630432236320597  0.3692220378579000   T   T   T
  0.1652793354787858  0.0636153487947923  0.2059881227578767   T   T   T
  0.3974608023852973  0.3344037658984281  0.5330326375408518   T   T   T
  0.3975050798595897  0.3344602743589907  0.3692278711441001   T   T   T
  0.3999104595084937  0.3364617259876249  0.2071011796207100   T   T   T
  0.1041702324723493  0.1672984060283805  0.6145351094430783   T   T   T
  0.1026859513732399  0.1657520671441590  0.4509554100713582   T   T   T
  0.1026639007456937  0.1657057001026434  0.2870279587929724   T   T   T
  0.0631312905295322  0.3958005951506348  0.6145388446175322   T   T   T
  0.0630689097799749  0.3972746590123867  0.4509566638110163   T   T   T
  0.0631041903084866  0.3972478287264415  0.2871156047736242   T   T   T
  0.1672985300074780  0.1041686149335755  0.6145352990946349   T   T   T
  0.1657521159974711  0.1026862878993273  0.4509553713341012   T   T   T
  0.1657062693453221  0.1026638809482288  0.2870279408232390   T   T   T
  0.3958013841720381  0.0631319543428208  0.6145389209876201   T   T   T
  0.3972751615335426  0.0630691911506454  0.4509566873346944   T   T   T
  0.3972507437089236  0.0631089727283812  0.2871153837170708   T   T   T
  0.0630603924853062  0.1656437773848375  0.5330291869158056   T   T   T
  0.0630428343479755  0.1655738998211276  0.3692219880338273   T   T   T
  0.0635738447953785  0.1652707547680955  0.2059751247730285   T   T   T
  0.3344038650309388  0.3974611564970817  0.5330327007118696   T   T   T
  0.3344607649694458  0.3975042840541010  0.3692278249459176   T   T   T
  0.3364931508230886  0.3998237565242934  0.2070685369225753   T   T   T
  0.1757421537968199 -0.0000047312550253  0.6488465427335464   T   T   T
  0.1727432189168704 -0.0000202869238304  0.4864806530755930   T   T   T
  0.1727005925913520 -0.0000185206663122  0.3226429005921767   T   T   T
  0.2341937181553810  0.0000086547660684  0.6210841671915067   T   T   T
  0.2323711925455103  0.0000040342446802  0.4587714433923325   T   T   T
  0.2323732316902053  0.0000069799153062  0.2949480317237956   T   T   T
  0.3242737850206721  0.3242739071906308  0.6488452962084130   T   T   T
  0.3272542513526245  0.3272542137525359  0.4864828629351506   T   T   T
  0.3271784036640993  0.3271798958569370  0.3226625809872275   T   T   T
  0.2658443289023127  0.2658442844821950  0.6210852822805281   T   T   T
  0.2676515868506537  0.2676515219691276  0.4587738489359063   T   T   T
  0.2676968683119264  0.2676985950267212  0.2949424097683251   T   T   T
 -0.0000042238702240  0.1757422806825150  0.6488463505644285   T   T   T
  0.9999795932630244  0.1727430617988125  0.4864808301492343   T   T   T
  0.9999809190314120  0.1727001196096295  0.3226429104979872   T   T   T
  0.0000089336781861  0.2341940589990891  0.6210840582448021   T   T   T
  0.0000038445373428  0.2323706331871642  0.4587714905770143   T   T   T
  0.0000049373204415  0.2323719172028206  0.2949480959067591   T   T   T
  0.3269851365638344  0.0000188850197389  0.5683644630328113   T   T   T
  0.3273153565767504  0.0000189041223962  0.4046361584961632   T   T   T
  0.3298915062056018  0.0000206448906553  0.2405714757680638   T   T   T
  0.2672540057746121 -0.0000067042400013  0.5406713898242539   T   T   T
  0.2672902055058670 -0.0000060557566077  0.3770048841571132   T   T   T
  0.2672717296038051 -0.0000135352770261  0.2134102763144658   T   T   T
  0.1730135874076618  0.1730135628088908  0.5683643435292909   T   T   T
  0.1726721814151166  0.1726721709753718  0.4046393645058887   T   T   T
  0.1710841545784831  0.1710901317912043  0.2401466838464903   T   T   T
  0.2327256408459749  0.2327257332278673  0.5406716705623387   T   T   T
  0.2327024448098940  0.2327023014922388  0.3770075570881828   T   T   T
  0.2341097761301769  0.2340937768052704  0.2128969910849900   T   T   T
  0.0000188695437505  0.3269849287484264  0.5683642248048268   T   T   T
  0.0000192867027488  0.3273151637684690  0.4046362392162621   T   T   T
  0.0000134468401327  0.3298880712112459  0.2405711827696072   T   T   T
 -0.0000069602988197  0.2672533268870499  0.5406713483618553   T   T   T
 -0.0000057845286091  0.2672902135824804  0.3770049238643195   T   T   T
  0.0000009796505865  0.2672782654102998  0.2134102235218838   T   T   T
  0.6656444720175374  0.0630600144931890  0.5330288523603486   T   T   T
  0.6655884340774584  0.0630489019427744  0.3692240289658525   T   T   T
  0.6635857432112237  0.0634427935364656  0.2070960308729922   T   T   T
  0.8974627531468948  0.3344046105009302  0.5330347089660350   T   T   T
  0.8974854543060278  0.3344621817518007  0.3692301810294707   T   T   T
  0.8974197148463270  0.3357252213445012  0.2068240546395594   T   T   T
  0.4369413067216035  0.1025719030194200  0.5330363899569317   T   T   T
  0.4369770550548839  0.1025511267364478  0.3692316314179475   T   T   T
  0.4383026434940387  0.1026230673045152  0.2068295931219756   T   T   T
  0.6041697687919447  0.1672989455651372  0.6145359416108251   T   T   T
  0.6026876202395687  0.1657535088644349  0.4509547563016431   T   T   T
  0.6026813445959067  0.1658108944841806  0.2871365260894950   T   T   T
  0.5631319591187439  0.3958004387328056  0.6145390217952437   T   T   T
  0.5630676357269807  0.3972739570168379  0.4509567016970470   T   T   T
  0.5631312610331303  0.3972797351211225  0.2871381007122445   T   T   T
  0.4368736659851528  0.3326533243584671  0.6145314855637339   T   T   T
  0.4369316447105688  0.3341949617624935  0.4509516537308662   T   T   T
  0.4370552328549893  0.3341792926081020  0.2871382992331484   T   T   T
  0.6672991507362347  0.1041714987709200  0.6145359072847656   T   T   T
  0.6657532447081141  0.1026874300753292  0.4509555065438507   T   T   T
  0.6657678294880525  0.1028263527807335  0.2871424834230308   T   T   T
  0.8958015793997929  0.0631320688453662  0.6145390144831677   T   T   T
  0.8972753046934402  0.0630671636277611  0.4509572998355409   T   T   T
  0.8973024738743579  0.0630450931858619  0.2870302022862696   T   T   T
  0.5630623597859703  0.1656428636669496  0.5330308989318628   T   T   T
  0.5630427742688048  0.1655914868022118  0.3692255084038019   T   T   T
  0.5647275060959950  0.1655614037233130  0.2080818214549809   T   T   T
  0.8344049494740712  0.3974623989217638  0.5330345126224958   T   T   T
  0.8344568424591233  0.3974953515756566  0.3692291130617119   T   T   T
  0.8344979254707802  0.3992221957644926  0.2080855118564990   T   T   T
  0.6757421365208393 -0.0000045701696439  0.6488461577149223   T   T   T
  0.6727448746085773 -0.0000203707996539  0.4864819770614170   T   T   T
  0.6728199546089970 -0.0000210021987106  0.3226611093064469   T   T   T
  0.7341943223557224  0.0000086201335387  0.6210837193220592   T   T   T
  0.7323670323240997  0.0000039807672154  0.4587725512373907   T   T   T
  0.7323213058976880  0.0000033050434817  0.2949415940649532   T   T   T
  0.8242755808312259  0.3242752027372211  0.6488455045246085   T   T   T
  0.8272572448664741  0.3272564953379914  0.4864783943554327   T   T   T
  0.8272858021693921  0.3272574671009096  0.3226621829443052   T   T   T
  0.7658449590507014  0.2658450212792119  0.6210856762887510   T   T   T
  0.7676462764895828  0.2676453354023188  0.4587707220077237   T   T   T
  0.7676450116890727  0.2676376828465740  0.2949371151492426   T   T   T
  0.4999952142100513  0.1757409085289419  0.6488460469685000   T   T   T
  0.4999792970489055  0.1727416087003383  0.4864773944702840   T   T   T
  0.4999518682769547  0.1727124568857684  0.3226608960540119   T   T   T
  0.5000087218554333  0.2341936162601884  0.6210839167349141   T   T   T
  0.5000035681835215  0.2323722514058346  0.4587693814064947   T   T   T
  0.4999973500898419  0.2323733740807463  0.2949359168702734   T   T   T
  0.8269849087138365  0.0000187248785499  0.5683639560814425   T   T   T
  0.8273265280593105  0.0000192248792326  0.4046385277426978   T   T   T
  0.8289111274712173  0.0000127297451932  0.2401459209360922   T   T   T
  0.7672529527499157 -0.0000069510643727  0.5406708747984809   T   T   T
  0.7672762119428349 -0.0000056020665570  0.3770063943536326   T   T   T
  0.7658921703471822  0.0000102143824218  0.2128958391965750   T   T   T
  0.6730133508645267  0.1730126259838194  0.5683647654546512   T   T   T
  0.6726755835503221  0.1726690535305243  0.4046376831181706   T   T   T
  0.6712394945093304  0.1709097330424654  0.2408489668022304   T   T   T
  0.7327254022021917  0.2327245308532948  0.5406725822576230   T   T   T
  0.7327028667440746  0.2326992884092016  0.3770037120515211   T   T   T
  0.7340204209981477  0.2341205875378911  0.2134032059171141   T   T   T
  0.5000184680799135  0.3269855951144036  0.5683644793263343   T   T   T
  0.5000130727247618  0.3273234244099567  0.4046367349751842   T   T   T
  0.4996881994495841  0.3287601312818680  0.2408486921504269   T   T   T
  0.4999929326787577  0.2672536096917321  0.5406717329091709   T   T   T
  0.4999912242312524  0.2672756979771656  0.3770026073765216   T   T   T
  0.5001011387201125  0.2659664733591442  0.2134019580985680   T   T   T
  0.1656428491806890  0.5630616480624163  0.5330309737640792   T   T   T
  0.1655914498780775  0.5630421807029152  0.3692253313277414   T   T   T
  0.1654797854670549  0.5646265364258024  0.2079997099126284   T   T   T
  0.3974633537982747  0.8344051323863728  0.5330346970929479   T   T   T
  0.3974948209348367  0.8344574688639655  0.3692288814802489   T   T   T
  0.3992026828838975  0.8345791075689096  0.2080032120152401   T   T   T
  0.3326534119480675  0.4368735379311772  0.6145314170134646   T   T   T
  0.3341953311115226  0.4369315614747394  0.4509515972766774   T   T   T
  0.3341787577157218  0.4370516911170077  0.2871369063056088   T   T   T
  0.1041705416484417  0.6672988171503972  0.6145359854074978   T   T   T
  0.1026875826823300  0.6657529022289153  0.4509554434122501   T   T   T
  0.1028245725139551  0.6657692207315773  0.2871408401261686   T   T   T
  0.0631326724380809  0.8958019551994524  0.6145392076217246   T   T   T
  0.0630668763882115  0.8972750177318549  0.4509572757703672   T   T   T
  0.0630442743212489  0.8973023253876110  0.2870301270389332   T   T   T
  0.1672988666823555  0.6041703879761351  0.6145358201056286   T   T   T
  0.1657534694057354  0.6026870162449913  0.4509547419745275   T   T   T
  0.1658101019893692  0.6026817683949613  0.2871350027372370   T   T   T
  0.3958006285135292  0.5631319061615517  0.6145390185722824   T   T   T
  0.3972743405996243  0.5630675027867823  0.4509566931962273   T   T   T
  0.3972798739596450  0.5631294956123345  0.2871368471694448   T   T   T
  0.0630600922363914  0.6656442733703974  0.5330288573468134   T   T   T
  0.0630480404806507  0.6655878894324828  0.3692240290182190   T   T   T
  0.0633249644122683  0.6635537645195096  0.2070632613783286   T   T   T
  0.3344051352921519  0.8974626885501742  0.5330347886683069   T   T   T
  0.3344626034590437  0.8974866761522120  0.3692301619363443   T   T   T
  0.3357503301234119  0.8975467868260740  0.2067996514665714   T   T   T
  0.1025714848398998  0.4369405526342319  0.5330365577432992   T   T   T
  0.1025507549012377  0.4369761461803776  0.3692315017506865   T   T   T
  0.1024959857028765  0.4382006797593527  0.2068051915465654   T   T   T
  0.1757417070792798  0.4999953897701792  0.6488465224513370   T   T   T
  0.1727415714882212  0.4999788675523257  0.4864774653042940   T   T   T
  0.1727123486286322  0.4999529028100670  0.3226605926279533   T   T   T
  0.2341938934249571  0.5000087080930691  0.6210840847469216   T   T   T
  0.2323718983798960  0.5000029947650745  0.4587693408645021   T   T   T
  0.2323742093992937  0.4999980692207817  0.2949365283338631   T   T   T
  0.3242749015268294  0.8242750729592719  0.6488458172628594   T   T   T
  0.3272568459165349  0.8272572488997408  0.4864781144403181   T   T   T
  0.3272588343558263  0.8272861874119934  0.3226620828148940   T   T   T
  0.2658452274982849  0.7658451408173550  0.6210858343726076   T   T   T
  0.2676453398941742  0.7676459567591275  0.4587706003638456   T   T   T
  0.2676386680932088  0.7676454287742304  0.2949377765296670   T   T   T
 -0.0000042162261472  0.6757422587721000  0.6488461166166017   T   T   T
  0.9999796410775129  0.6727446540421812  0.4864818944458858   T   T   T
  0.9999823556647979  0.6728217028473026  0.3226614210282210   T   T   T
  0.0000088889782069  0.7341942666986974  0.6210838307244519   T   T   T
  0.0000038032229816  0.7323669972989372  0.4587725240516290   T   T   T
  0.0000067322619694  0.7323233442081934  0.2949415554445515   T   T   T
  0.3269859465965999  0.5000185683898827  0.5683644396043221   T   T   T
  0.3273238703606887  0.5000132687646237  0.4046367534663819   T   T   T
  0.3287060243118163  0.4996952058632559  0.2408353648744110   T   T   T
  0.2672536204962981  0.4999926789891297  0.5406718311842920   T   T   T
  0.2672759899844724  0.4999911269254992  0.3770026362512225   T   T   T
  0.2659929926614104  0.5000847963459047  0.2133778958099752   T   T   T
  0.1730127729520563  0.6730130478522367  0.5683648380092782   T   T   T
  0.1726694014951374  0.6726752137483213  0.4046375165180608   T   T   T
  0.1709732406508994  0.6712947522001169  0.2408348972010225   T   T   T
  0.2327247974333323  0.7327251678248143  0.5406726629844687   T   T   T
  0.2326996203219534  0.7327027174005186  0.3770037542417133   T   T   T
  0.2340806492436696  0.7339951288290282  0.2133793217364773   T   T   T
  0.0000187787086446  0.8269849049605481  0.5683641144414577   T   T   T
  0.0000190437549448  0.8273265717566790  0.4046385253048191   T   T   T
  0.0000246272758761  0.8289170011017555  0.2401454180911362   T   T   T
  0.9999930467390205  0.7672530970486930  0.5406709105011656   T   T   T
  0.9999939641380723  0.7672758109816887  0.3770063682071887   T   T   T
  0.9999782984341014  0.7658757115867608  0.2128957347934342   T   T   T
  0.6656430001111275  0.5630619925990632  0.5330309927392775   T   T   T
  0.6655861520210307  0.5630268522889507  0.3692265356124632   T   T   T
  0.6643251988491845  0.5616897759109671  0.2068197075093873   T   T   T
  0.8974612503334739  0.8344039716990730  0.5330330098349951   T   T   T
  0.8975129181604554  0.8344745830552558  0.3692258164821288   T   T   T
  0.8983706563679064  0.8347617865598579  0.2059904511023685   T   T   T
  0.4369410569427626  0.6025713203691856  0.5330364014588346   T   T   T
  0.4369619341068516  0.6025416448743615  0.3692303971902370   T   T   T
  0.4353723840591133  0.6008281419529753  0.2080096704794354   T   T   T
  0.8326539465313174  0.4368731213643428  0.6145313307515172   T   T   T
  0.8341946742829841  0.4369307984011481  0.4509509149604204   T   T   T
  0.8341377195113034  0.4368683579449035  0.2871325299125150   T   T   T
  0.6041702264903703  0.6672987020818117  0.6145355628479080   T   T   T
  0.6026865338298690  0.6657542947512302  0.4509547509850299   T   T   T
  0.6027159071770202  0.6658180066536828  0.2871138336958473   T   T   T
  0.5631313190684271  0.8958002298447402  0.6145390593354515   T   T   T
  0.5630675142978615  0.8972743347832142  0.4509574320674873   T   T   T
  0.5629482195562663  0.8971398403937202  0.2871427426601170   T   T   T
  0.4368733754609918  0.8326536589414905  0.6145312566571809   T   T   T
  0.4369314486903603  0.8341947018210248  0.4509507547612633   T   T   T
  0.4368710189625197  0.8341395043806408  0.2871308769729976   T   T   T
  0.6672986612682503  0.6041700236888133  0.6145355135290645   T   T   T
  0.6657544043251822  0.6026866667732331  0.4509547240104730   T   T   T
  0.6658201251616087  0.6027128294021075  0.2871136548984663   T   T   T
  0.8958006370669825  0.5631313875950382  0.6145392254115060   T   T   T
  0.8972736292347083  0.5630665587533409  0.4509574676040159   T   T   T
  0.8971370999312837  0.5629442702497213  0.2871443358569694   T   T   T
  0.5630622422305094  0.6656428895063433  0.5330311097561298   T   T   T
  0.5630278221791580  0.6655864303927498  0.3692264019510254   T   T   T
  0.5617926510048821  0.6643007306437009  0.2067952814276672   T   T   T
  0.8344039353754389  0.8974618715282376  0.5330330975808966   T   T   T
  0.8344745184452275  0.8975136974741753  0.3692258950404136   T   T   T
  0.8347719259792418  0.8983370152020045  0.2059771599032959   T   T   T
  0.6025714670445130  0.4369409040574420  0.5330362653531467   T   T   T
  0.6025415327775694  0.4369615093917789  0.3692305866472511   T   T   T
  0.6008077074147155  0.4352702352047843  0.2080923410032889   T   T   T
  0.6757414576346140  0.4999957649327181  0.6488459182634660   T   T   T
  0.6727421865088699  0.4999803498952820  0.4864773987881339   T   T   T
  0.6727417514596912  0.5000092900136774  0.3226618809846740   T   T   T
  0.7341938754654422  0.5000084460640619  0.6210837565638880   T   T   T
  0.7323730512669339  0.5000046795303602  0.4587693918934669   T   T   T
  0.7323815840582563  0.5000127785207202  0.2949358989926103   T   T   T
  0.8242746717936152  0.8242744772708730  0.6488460639047038   T   T   T
  0.8272555617990978  0.8272556009596735  0.4864815683950598   T   T   T
  0.8272991022184472  0.8272990866378486  0.3226443106113461   T   T   T
  0.7658448365347381  0.7658448220988439  0.6210858504088281   T   T   T
  0.7676472285723698  0.7676472021716025  0.4587728085939952   T   T   T
  0.7676476005404566  0.7676469029749128  0.2949492653283569   T   T   T
  0.4999954953915445  0.6757414159729189  0.6488463966048132   T   T   T
  0.4999805495227626  0.6727421736690100  0.4864773614062187   T   T   T
  0.5000081918591193  0.6727406750156371  0.3226618129750591   T   T   T
  0.5000084205232556  0.7341932009000341  0.6210839558545950   T   T   T
  0.5000050685667170  0.7323728608444640  0.4587693275854070   T   T   T
  0.5000120977342902  0.7323808725094202  0.2949365823721188   T   T   T
  0.8269861150999855  0.5000192862781176  0.5683645381226915   T   T   T
  0.8273296586254585  0.5000250997773967  0.4046367441565483   T   T   T
  0.8290872049940254  0.5003460902474591  0.2408482552181243   T   T   T
  0.7672541197132571  0.4999939197207048  0.5406717878590434   T   T   T
  0.7672788819228058  0.4999973840264459  0.3770025786005491   T   T   T
  0.7658559260124522  0.4998931701170827  0.2134012819452359   T   T   T
  0.6730137469817238  0.6730138333382192  0.5683644629792423   T   T   T
  0.6726835023815246  0.6726837610794065  0.4046370793505452   T   T   T
  0.6701039967149895  0.6701003235931244  0.2405731588692361   T   T   T
  0.7327252899236784  0.7327252570339202  0.5406721175038010   T   T   T
  0.7326880033727036  0.7326883374532489  0.3770060773700164   T   T   T
  0.7326924379425236  0.7326996045286288  0.2134113362325743   T   T   T
  0.5000195480043250  0.8269861159453863  0.5683645421094914   T   T   T
  0.5000253467339293  0.8273297940574850  0.4046367597250135   T   T   T
  0.5003383125647676  0.8290239229876936  0.2408346257097206   T   T   T
  0.4999942708132759  0.7672540508003413  0.5406718647399070   T   T   T
  0.4999976974145054  0.7672790309211747  0.3770025860865635   T   T   T
  0.4999086073304034  0.7658973317452654  0.2133775199734200   T   T   T
  0.9369400960295972  0.1025716381986687  0.5330348493220047   T   T   T
  0.9369599760834076  0.1025223295363595  0.3692271779588508   T   T   T
  0.9363943791795221  0.1016540986905131  0.2059957824526318   T   T   T
  0.9368731323795879  0.3326541304345444  0.6145311352557193   T   T   T
  0.9369291465730141  0.3341937682957558  0.4509508783451536   T   T   T
  0.9368904580074622  0.3341301349946593  0.2871096440013979   T   T   T
  0.9369406655180078  0.6025728629236472  0.5330344842031577   T   T   T
  0.9369546319163345  0.6025310673295954  0.3692292261259547   T   T   T
  0.9365479311795507  0.6001170442068854  0.2071061265293342   T   T   T
  0.9368741071746043  0.8326539889385003  0.6145312480109869   T   T   T
  0.9369308279292174  0.8341961364291294  0.4509515321314248   T   T   T
  0.9369510400854286  0.8342451095586298  0.2870249542068380   T   T   T
  0.3326540993536949  0.9368738158977525  0.6145311168494740   T   T   T
  0.3341941271987442  0.9369295039441180  0.4509508233137340   T   T   T
  0.3341325176169039  0.9368959016777527  0.2871097766664204   T   T   T
  0.1025719849342799  0.9369404393945190  0.5330348717775522   T   T   T
  0.1025228024765308  0.9369605127985666  0.3692271443799803   T   T   T
  0.1016859507041342  0.9364355851781617  0.2059826056345712   T   T   T
  0.8326541737729886  0.9368732996789541  0.6145312331679074   T   T   T
  0.8341961330633778  0.9369310265589127  0.4509514818844216   T   T   T
  0.8342453686061676  0.9369517798475429  0.2870249866406486   T   T   T
  0.6025730746152719  0.9369406892288491  0.5330344871566116   T   T   T
  0.6025319358716467  0.9369555217314788  0.3692291401966389   T   T   T
  0.6002041799530584  0.9366658686132622  0.2070731449887542   T   T   T
  0.1697224132211692 -0.0000368625633907  0.6290417887553054   T   T   T
  0.1678864749486403 -0.0000390824607968  0.4668355291608149   T   T   T
  0.1678716253375694 -0.0000416969626572  0.3030207994139161   T   T   T
  0.1674392025531609 -0.0000002103806458  0.5252715735589016   T   T   T
  0.1673296417095804 -0.0000025049914722  0.3614479139173162   T   T   T
  0.1685083936448898  0.0000311759812723  0.1988662684973360   T   T   T
  0.3302905488011530  0.3302908171200864  0.6290414706436664   T   T   T
  0.3321120606867959  0.3321117899008916  0.4668358713274095   T   T   T
  0.3320687977172184  0.3320743980539949  0.3030549605123968   T   T   T
  0.3325799208187452  0.3325795086862645  0.5252782334426821   T   T   T
  0.3326656589531277  0.3326657693868372  0.3614573431994159   T   T   T
  0.3357320080758601  0.3356614938674514  0.1989192554162800   T   T   T
 -0.0000367148608863  0.1697223696201632  0.6290418127127145   T   T   T
 -0.0000390394699808  0.1678867333215669  0.4668353177929909   T   T   T
 -0.0000412310289381  0.1678717860224730  0.3030208923065644   T   T   T
  0.0000002955394090  0.1674392660432956  0.5252715617116045   T   T   T
 -0.0000021422613072  0.1673296899240391  0.3614478734006931   T   T   T
 -0.0000346742165375  0.1684753109498091  0.1988665295660808   T   T   T