au_111_4_layers_5x5_with_h2o_6_bilayers_
   1.00000000000000     
    14.6976995467999991    0.0000000000000000    0.0000000000000000
    -7.3488497733999996   12.7285811846999994    0.0000000000000000
     0.0000000000000000    0.0000000000000000   49.2004013061999999
   Au   H    O 
   100    48    24
Selective dynamics
Direct
  0.0000000000000000  0.0000000000000000  0.0000000000000000   F   F   F
  0.2673826424442538  0.1338672849679909  0.0472185723358720   T   T   T
  0.1331714041519092  0.2674442718449299  0.0941579175508664   T   T   T
  0.0000014707332383  0.9999998308551810  0.1409608376949194   T   T   T
  0.9999999999764526  0.2000000029901230  0.0000000000000000   F   F   F
  0.2660139486581272  0.3335990441912884  0.0475142622449241   T   T   T
  0.1336726192431286  0.0667439024758210  0.0939083227275219   T   T   T
  0.9999328582812268  0.2009480916514903  0.1412487989695137   T   T   T
  0.2000000030136633  0.2000000029901230  0.0000000000000000   F   F   F
  0.0663983420899470  0.3335826803675772  0.0472548008943647   T   T   T
  0.3338458753627620  0.0667333729090487  0.0943421558131448   T   T   T
  0.2000755027113001  0.2001288684471234  0.1408593195999401   T   T   T
  0.2000000029691691  0.0000000000000000  0.0000000000000000   F   F   F
  0.0671777513758514  0.1334228835343012  0.0472526043867845   T   T   T
  0.3341768334855431  0.2668534637463580  0.0940743598703406   T   T   T
  0.2009816237143056  0.0000470270720783  0.1412526008788433   T   T   T
  0.4000000059383453  0.0000000000000000  0.0000000000000000   F   F   F
  0.6667127168503555  0.1337851161895145  0.0472276262816536   T   T   T
  0.5339863371064482  0.2674966073528822  0.0943103378458048   T   T   T
  0.4006910758603723  0.0000779159188937  0.1418476764650762   T   T   T
  0.4000000059828395  0.2000000029901230  0.0000000000000000   F   F   F
  0.6666665637459417  0.3333589793162588  0.0472455278833053   T   T   T
  0.5338802030356860  0.0664567867704378  0.0944353863540854   T   T   T
  0.4004518977697415  0.2005329812045389  0.1416595395620419   T   T   T
  0.6000000238523029  0.2000000029901230  0.0000000000000000   F   F   F
  0.4670466260097754  0.3333287225037154  0.0472295475026172   T   T   T
  0.7331562793261952  0.0673407874394769  0.0940720669251789   T   T   T
  0.5999548640756771  0.2000377552689940  0.1419070692859137   T   T   T
  0.6000000238758432  0.0000000000000000  0.0000000000000000   F   F   F
  0.4666344335819588  0.1330429529529056  0.0476056505492650   T   T   T
  0.7325386450872600  0.2665436955795712  0.0943102324417637   T   T   T
  0.5997595247813763  0.9999670429162748  0.1419926290175013   T   T   T
  0.8000000119447250  0.0000000000000000  0.0000000000000000   F   F   F
  0.9332707652071761  0.2671323640732695  0.0943422323924707   T   T   T
  0.7998692424043625  0.9999723083351242  0.1408640517971165   T   T   T
  0.7999999523200216  0.2000000029901230  0.0000000000000000   F   F   F
  0.9332600027666942  0.0669374543134253  0.0939094475700202   T   T   T
  0.7994683995168259  0.1999249193441557  0.1416610076260980   T   T   T
  0.8669953587123871  0.3336410531240475  0.0476019365585572   T   T   T
  0.8661375422570217  0.1335245863482726  0.0472195621144422   T   T   T
  0.0000000000209468  0.4000000059802389  0.0000000000000000   F   F   F
  0.2673855198751625  0.5336238550793837  0.0474848623107604   T   T   T
  0.1335073254308554  0.6664523309110990  0.0945378796813259   T   T   T
  0.9999533146950199  0.4006605132629346  0.1418459829166494   T   T   T
  0.0000000000055138  0.6000000238188363  0.0000000000000000   F   F   F
  0.2662410760198739  0.7326282062591432  0.0474821931882161   T   T   T
  0.1329798329237661  0.4668760873306326  0.0941591672913376   T   T   T
  0.0000415338248843  0.5998039690708694  0.1419922554089155   T   T   T
  0.2000000178749772  0.6000000238188363  0.0000000000000000   F   F   F
  0.0675784268160342  0.7339975994431711  0.0475140435551751   T   T   T
  0.3335487688366143  0.4670695723106491  0.0945417177912447   T   T   T
  0.2000489636309339  0.6000494419806657  0.1419938148900215   T   T   T
  0.2000000029901230  0.4000000059802389  0.0000000000000000   F   F   F
  0.0663941494790663  0.5336186005700654  0.0473401195549883   T   T   T
  0.3333290259923274  0.6666980475358457  0.0946169770347822   T   T   T
  0.2002039582460853  0.4005109857001372  0.1416779839400633   T   T   T
  0.4000000059592921  0.4000000059802389  0.0000000000000000   F   F   F
  0.6663639192034765  0.5333726377741144  0.0476042637963516   T   T   T
  0.5331322273247991  0.6661396382335667  0.0941627587002714   T   T   T
  0.4001906991713184  0.4002553439544556  0.1419843288039147   T   T   T
  0.4000000357444407  0.6000000238188363  0.0000000000000000   F   F   F
  0.6664250151951947  0.7328269671568819  0.0472550828128462   T   T   T
  0.5325704191972420  0.4661619734048941  0.0944468164670269   T   T   T
  0.3999547668024590  0.6000387737595290  0.1419852944026445   T   T   T
  0.6000000238133225  0.6000000238188363  0.0000000000000000   F   F   F
  0.4663812089775305  0.7337658570608809  0.0474838538341942   T   T   T
  0.7334927193938938  0.4660379041001477  0.0943122703828863   T   T   T
  0.5994404783451017  0.5994323474551990  0.1418403160766104   T   T   T
  0.6000000238287555  0.4000000059802389  0.0000000000000000   F   F   F
  0.4663872480696512  0.5327950286477332  0.0473422945181525   T   T   T
  0.7329039792407528  0.6661844599503297  0.0943403934480855   T   T   T
  0.6000915771458608  0.4000531501690787  0.1419076100948189   T   T   T
  0.8000000118976374  0.4000000059802389  0.0000000000000000   F   F   F
  0.9326910599680431  0.6658463091982867  0.0940734703383868   T   T   T
  0.7999684759503651  0.3999242925808204  0.1419050048523118   T   T   T
  0.8000000118822044  0.6000000238188363  0.0000000000000000   F   F   F
  0.9335754584307452  0.4674664637994042  0.0944352331524385   T   T   T
  0.8000858473398438  0.5995780570876832  0.1416546032089698   T   T   T
  0.8664856385423221  0.7326288042407967  0.0472181861979521   T   T   T
  0.8662442652225906  0.5329688836705557  0.0472263703042159   T   T   T
  0.0000000000419007  0.8000000119604849  0.0000000000000000   F   F   F
  0.2671855649207941  0.9336036321948953  0.0472548702738251   T   T   T
  0.0000645139016768  0.7999224176200030  0.1408664451236774   T   T   T
  0.1342772082248871  0.8668403295576468  0.0941584267404210   T   T   T
  0.3339023290535792  0.8670420338392262  0.0941632180546819   T   T   T
  0.2000000030110698  0.8000000119604849  0.0000000000000000   F   F   F
  0.0662407706905839  0.9328206031115087  0.0472528516046040   T   T   T
  0.2002517889202409  0.7997580213776914  0.1416790768631415   T   T   T
  0.4000000059802389  0.8000000119604849  0.0000000000000000   F   F   F
  0.6664205175700815  0.9324317084267904  0.0475151674971954   T   T   T
  0.3999886267798090  0.7999646854819602  0.1419967546820544   T   T   T
  0.5329369194841576  0.8665300731103258  0.0945361487767684   T   T   T
  0.7325689528632040  0.8657317716059580  0.0941602137875748   T   T   T
  0.6000000238497023  0.8000000119604849  0.0000000000000000   F   F   F
  0.4672403317422891  0.9336268012461204  0.0473368795793547   T   T   T
  0.5995229729102505  0.7997978888070136  0.1416743014395863   T   T   T
  0.8000000119185842  0.8000000119604849  0.0000000000000000   F   F   F
  0.7991496012160013  0.7990915604734710  0.1412626951229683   T   T   T
  0.9330808463978570  0.8663314622462011  0.0939087381610477   T   T   T
  0.8665791692797384  0.9337638621974804  0.0472554655630120   T   T   T
  0.1724881606813113  0.0644453604485449  0.2001815324973890   T   T   T
  0.3993624713386978  0.3359281644819632  0.2080572568619701   T   T   T
  0.0642654561132119  0.1725453026776620  0.2001567711649912   T   T   T
  0.3362078534186068  0.3992464949687076  0.2079377736168624   T   T   T
  0.3260097641011583  0.0003159644588706  0.2357707040512764   T   T   T
  0.2679768311410271  0.0003521618962665  0.2078088005782703   T   T   T
  0.1718087283478340  0.1720290800624937  0.2317823605530549   T   T   T
  0.2419937231015012  0.2419665374473965  0.2063443706016699   T   T   T
  0.9997579454210168  0.3258010797778184  0.2357545927552422   T   T   T
  0.9999482461035143  0.2678226244842250  0.2077975465716904   T   T   T
  0.6646812575545411  0.0631233033380525  0.2079374848605084   T   T   T
  0.8904260039161542  0.3353796175154571  0.2053992157616165   T   T   T
  0.4448343533393100  0.1097548136561457  0.2054539480565225   T   T   T
  0.5701234514937212  0.1730105288304102  0.2099975126111886   T   T   T
  0.8270039997549432  0.3971979174041422  0.2100473058390548   T   T   T
  0.8292901196813034  0.0000388365647837  0.2318690197385607   T   T   T
  0.7590435510581344  0.0000026518424576  0.2064601345704631   T   T   T
  0.6823215934718121  0.1759153426318107  0.2428578880668866   T   T   T
  0.7396186105704530  0.2409565746939535  0.2148002817410060   T   T   T
  0.4937828521964818  0.3174348878144286  0.2432045179828748   T   T   T
  0.5014327814153674  0.2603004570727734  0.2150678810989461   T   T   T
  0.1728697795835927  0.5698072415530646  0.2097760221428118   T   T   T
  0.3971844793154560  0.8272932908891946  0.2098559357398315   T   T   T
  0.0628326050092483  0.6644001664849668  0.2077867056368277   T   T   T
  0.3354103288074839  0.8909069643409566  0.2054073185303551   T   T   T
  0.1093784822891237  0.4443916853236445  0.2054291064615370   T   T   T
  0.3177575108946584  0.4939750692631222  0.2429578455366581   T   T   T
  0.2603207791733624  0.5012267628730172  0.2148501898767137   T   T   T
  0.1757921955328285  0.6819492813792962  0.2425612829390360   T   T   T
  0.2408486155429159  0.7396350295409846  0.2145588211987004   T   T   T
  0.0003923123069711  0.8293879606648318  0.2318651905530231   T   T   T
  0.9999615591960591  0.7589723847908516  0.2064511984692814   T   T   T
  0.6644764526638838  0.5548645616277454  0.2054160972968759   T   T   T
  0.8917634451875855  0.8278210712534673  0.2002492604906223   T   T   T
  0.4300348669205647  0.6026151091358898  0.2099582993062938   T   T   T
  0.5553099970342643  0.6644311509696621  0.2053930283348393   T   T   T
  0.8278448461024723  0.8915715918114628  0.2002348903918545   T   T   T
  0.6026003973237408  0.4297092563387395  0.2101511462617935   T   T   T
  0.8233894333081508  0.5060140283366721  0.2430081651113980   T   T   T
  0.7586077279084265  0.4983558871846583  0.2148974240292745   T   T   T
  0.6740221072956700  0.6737413062134792  0.2358027529962712   T   T   T
  0.7321390535917232  0.7319191422452747  0.2078584161191870   T   T   T
  0.5059126515953523  0.8234569759323378  0.2427347411608451   T   T   T
  0.4985513052481636  0.7587157911848834  0.2146608714309579   T   T   T
  0.9364876791498347  0.1083158236802220  0.2002211244396932   T   T   T
  0.9362852582106171  0.6012991864072603  0.2080199235929783   T   T   T
  0.1084686849312391  0.9366596344486879  0.2002050541153650   T   T   T
  0.6014316034583658  0.9365743255240915  0.2078937416461315   T   T   T
  0.1778875892349205  0.0004925864952270  0.1963663523035066   T   T   T
  0.3373938698966583  0.3371125244062014  0.2002027147941945   T   T   T
  0.0002136842592719  0.1777902364401882  0.1963594541362710   T   T   T
  0.3340359766300125  0.0002691817980107  0.2161648642475598   T   T   T
  0.1719448870402616  0.1720874964755126  0.2120162177086158   T   T   T
  0.9998429345527384  0.3338777021804660  0.2161484790834436   T   T   T
  0.6638774977923276  0.9998945527794803  0.2002671319248037   T   T   T
  0.8208735736316868  0.3307219948214666  0.2029401006916984   T   T   T
  0.5097225869434325  0.1793279279392621  0.2030152807944674   T   T   T
  0.8291023681402692  0.0000779116163727  0.2121029233275138   T   T   T
  0.6744271209731778  0.1709316744586786  0.2232396784595565   T   T   T
  0.4967294155184305  0.3254856774544947  0.2235927921076595   T   T   T
  0.1789746095570521  0.5091667906240644  0.2028811430704422   T   T   T
  0.3306972936419399  0.8213767655289956  0.2028272640812432   T   T   T
  0.9993999474205850  0.6635719968321609  0.2002568713029049   T   T   T
  0.3256776745963279  0.4967959048154071  0.2233426314952069   T   T   T
  0.1709093258738790  0.6742194164245703  0.2229381697748636   T   T   T
  0.0003092119572869  0.8291583189924125  0.2120986889712029   T   T   T
  0.6689912904809248  0.4898923659574308  0.2029516674975582   T   T   T
  0.8223022766408974  0.8221535868991765  0.1964217319660406   T   T   T
  0.4904155525303224  0.6690123202146907  0.2028208585120908   T   T   T
  0.8285645716487267  0.5031949184040272  0.2233938463338063   T   T   T
  0.6660277732749620  0.6657908888438797  0.2161950754190300   T   T   T
  0.5031436496615171  0.8285891388613749  0.2231159283841677   T   T   T
 
  0.00000000E+00  0.00000000E+00  0.00000000E+00
  0.00000000E+00  0.00000000E+00  0.00000000E+00
  0.00000000E+00  0.00000000E+00  0.00000000E+00
  0.00000000E+00  0.00000000E+00  0.00000000E+00
  0.00000000E+00  0.00000000E+00  0.00000000E+00
  0.00000000E+00  0.00000000E+00  0.00000000E+00
  0.00000000E+00  0.00000000E+00  0.00000000E+00
  0.00000000E+00  0.00000000E+00  0.00000000E+00
  0.00000000E+00  0.00000000E+00  0.00000000E+00
  0.00000000E+00  0.00000000E+00  0.00000000E+00
  0.00000000E+00  0.00000000E+00  0.00000000E+00
  0.00000000E+00  0.00000000E+00  0.00000000E+00
  0.00000000E+00  0.00000000E+00  0.00000000E+00
  0.00000000E+00  0.00000000E+00  0.00000000E+00
  0.00000000E+00  0.00000000E+00  0.00000000E+00
  0.00000000E+00  0.00000000E+00  0.00000000E+00
  0.00000000E+00  0.00000000E+00  0.00000000E+00
  0.00000000E+00  0.00000000E+00  0.00000000E+00
  0.00000000E+00  0.00000000E+00  0.00000000E+00
  0.00000000E+00  0.00000000E+00  0.00000000E+00
  0.00000000E+00  0.00000000E+00  0.00000000E+00
  0.00000000E+00  0.00000000E+00  0.00000000E+00
  0.00000000E+00  0.00000000E+00  0.00000000E+00
  0.00000000E+00  0.00000000E+00  0.00000000E+00
  0.00000000E+00  0.00000000E+00  0.00000000E+00
  0.00000000E+00  0.00000000E+00  0.00000000E+00
  0.00000000E+00  0.00000000E+00  0.00000000E+00
  0.00000000E+00  0.00000000E+00  0.00000000E+00
  0.00000000E+00  0.00000000E+00  0.00000000E+00
  0.00000000E+00  0.00000000E+00  0.00000000E+00
  0.00000000E+00  0.00000000E+00  0.00000000E+00
  0.00000000E+00  0.00000000E+00  0.00000000E+00
  0.00000000E+00  0.00000000E+00  0.00000000E+00
  0.00000000E+00  0.00000000E+00  0.00000000E+00
  0.00000000E+00  0.00000000E+00  0.00000000E+00
  0.00000000E+00  0.00000000E+00  0.00000000E+00
  0.00000000E+00  0.00000000E+00  0.00000000E+00
  0.00000000E+00  0.00000000E+00  0.00000000E+00
  0.00000000E+00  0.00000000E+00  0.00000000E+00
  0.00000000E+00  0.00000000E+00  0.00000000E+00
  0.00000000E+00  0.00000000E+00  0.00000000E+00
  0.00000000E+00  0.00000000E+00  0.00000000E+00
  0.00000000E+00  0.00000000E+00  0.00000000E+00
  0.00000000E+00  0.00000000E+00  0.00000000E+00
  0.00000000E+00  0.00000000E+00  0.00000000E+00
  0.00000000E+00  0.00000000E+00  0.00000000E+00
  0.00000000E+00  0.00000000E+00  0.00000000E+00
  0.00000000E+00  0.00000000E+00  0.00000000E+00
  0.00000000E+00  0.00000000E+00  0.00000000E+00
  0.00000000E+00  0.00000000E+00  0.00000000E+00
  0.00000000E+00  0.00000000E+00  0.00000000E+00
  0.00000000E+00  0.00000000E+00  0.00000000E+00
  0.00000000E+00  0.00000000E+00  0.00000000E+00
  0.00000000E+00  0.00000000E+00  0.00000000E+00
  0.00000000E+00  0.00000000E+00  0.00000000E+00
  0.00000000E+00  0.00000000E+00  0.00000000E+00
  0.00000000E+00  0.00000000E+00  0.00000000E+00
  0.00000000E+00  0.00000000E+00  0.00000000E+00
  0.00000000E+00  0.00000000E+00  0.00000000E+00
  0.00000000E+00  0.00000000E+00  0.00000000E+00
  0.00000000E+00  0.00000000E+00  0.00000000E+00
  0.00000000E+00  0.00000000E+00  0.00000000E+00
  0.00000000E+00  0.00000000E+00  0.00000000E+00
  0.00000000E+00  0.00000000E+00  0.00000000E+00
  0.00000000E+00  0.00000000E+00  0.00000000E+00
  0.00000000E+00  0.00000000E+00  0.00000000E+00
  0.00000000E+00  0.00000000E+00  0.00000000E+00
  0.00000000E+00  0.00000000E+00  0.00000000E+00
  0.00000000E+00  0.00000000E+00  0.00000000E+00
  0.00000000E+00  0.00000000E+00  0.00000000E+00
  0.00000000E+00  0.00000000E+00  0.00000000E+00
  0.00000000E+00  0.00000000E+00  0.00000000E+00
  0.00000000E+00  0.00000000E+00  0.00000000E+00
  0.00000000E+00  0.00000000E+00  0.00000000E+00
  0.00000000E+00  0.00000000E+00  0.00000000E+00
  0.00000000E+00  0.00000000E+00  0.00000000E+00
  0.00000000E+00  0.00000000E+00  0.00000000E+00
  0.00000000E+00  0.00000000E+00  0.00000000E+00
  0.00000000E+00  0.00000000E+00  0.00000000E+00
  0.00000000E+00  0.00000000E+00  0.00000000E+00
  0.00000000E+00  0.00000000E+00  0.00000000E+00
  0.00000000E+00  0.00000000E+00  0.00000000E+00
  0.00000000E+00  0.00000000E+00  0.00000000E+00
  0.00000000E+00  0.00000000E+00  0.00000000E+00
  0.00000000E+00  0.00000000E+00  0.00000000E+00
  0.00000000E+00  0.00000000E+00  0.00000000E+00
  0.00000000E+00  0.00000000E+00  0.00000000E+00
  0.00000000E+00  0.00000000E+00  0.00000000E+00
  0.00000000E+00  0.00000000E+00  0.00000000E+00
  0.00000000E+00  0.00000000E+00  0.00000000E+00
  0.00000000E+00  0.00000000E+00  0.00000000E+00
  0.00000000E+00  0.00000000E+00  0.00000000E+00
  0.00000000E+00  0.00000000E+00  0.00000000E+00
  0.00000000E+00  0.00000000E+00  0.00000000E+00
  0.00000000E+00  0.00000000E+00  0.00000000E+00
  0.00000000E+00  0.00000000E+00  0.00000000E+00
  0.00000000E+00  0.00000000E+00  0.00000000E+00
  0.00000000E+00  0.00000000E+00  0.00000000E+00
  0.00000000E+00  0.00000000E+00  0.00000000E+00
  0.00000000E+00  0.00000000E+00  0.00000000E+00
  0.00000000E+00  0.00000000E+00  0.00000000E+00
  0.00000000E+00  0.00000000E+00  0.00000000E+00
  0.00000000E+00  0.00000000E+00  0.00000000E+00
  0.00000000E+00  0.00000000E+00  0.00000000E+00
  0.00000000E+00  0.00000000E+00  0.00000000E+00
  0.00000000E+00  0.00000000E+00  0.00000000E+00
  0.00000000E+00  0.00000000E+00  0.00000000E+00
  0.00000000E+00  0.00000000E+00  0.00000000E+00
  0.00000000E+00  0.00000000E+00  0.00000000E+00
  0.00000000E+00  0.00000000E+00  0.00000000E+00
  0.00000000E+00  0.00000000E+00  0.00000000E+00
  0.00000000E+00  0.00000000E+00  0.00000000E+00
  0.00000000E+00  0.00000000E+00  0.00000000E+00
  0.00000000E+00  0.00000000E+00  0.00000000E+00
  0.00000000E+00  0.00000000E+00  0.00000000E+00
  0.00000000E+00  0.00000000E+00  0.00000000E+00
  0.00000000E+00  0.00000000E+00  0.00000000E+00
  0.00000000E+00  0.00000000E+00  0.00000000E+00
  0.00000000E+00  0.00000000E+00  0.00000000E+00
  0.00000000E+00  0.00000000E+00  0.00000000E+00
  0.00000000E+00  0.00000000E+00  0.00000000E+00
  0.00000000E+00  0.00000000E+00  0.00000000E+00
  0.00000000E+00  0.00000000E+00  0.00000000E+00
  0.00000000E+00  0.00000000E+00  0.00000000E+00
  0.00000000E+00  0.00000000E+00  0.00000000E+00
  0.00000000E+00  0.00000000E+00  0.00000000E+00
  0.00000000E+00  0.00000000E+00  0.00000000E+00
  0.00000000E+00  0.00000000E+00  0.00000000E+00
  0.00000000E+00  0.00000000E+00  0.00000000E+00
  0.00000000E+00  0.00000000E+00  0.00000000E+00
  0.00000000E+00  0.00000000E+00  0.00000000E+00
  0.00000000E+00  0.00000000E+00  0.00000000E+00
  0.00000000E+00  0.00000000E+00  0.00000000E+00
  0.00000000E+00  0.00000000E+00  0.00000000E+00
  0.00000000E+00  0.00000000E+00  0.00000000E+00
  0.00000000E+00  0.00000000E+00  0.00000000E+00
  0.00000000E+00  0.00000000E+00  0.00000000E+00
  0.00000000E+00  0.00000000E+00  0.00000000E+00
  0.00000000E+00  0.00000000E+00  0.00000000E+00
  0.00000000E+00  0.00000000E+00  0.00000000E+00
  0.00000000E+00  0.00000000E+00  0.00000000E+00
  0.00000000E+00  0.00000000E+00  0.00000000E+00
  0.00000000E+00  0.00000000E+00  0.00000000E+00
  0.00000000E+00  0.00000000E+00  0.00000000E+00
  0.00000000E+00  0.00000000E+00  0.00000000E+00
  0.00000000E+00  0.00000000E+00  0.00000000E+00
  0.00000000E+00  0.00000000E+00  0.00000000E+00
  0.00000000E+00  0.00000000E+00  0.00000000E+00
  0.00000000E+00  0.00000000E+00  0.00000000E+00
  0.00000000E+00  0.00000000E+00  0.00000000E+00
  0.00000000E+00  0.00000000E+00  0.00000000E+00
  0.00000000E+00  0.00000000E+00  0.00000000E+00
  0.00000000E+00  0.00000000E+00  0.00000000E+00
  0.00000000E+00  0.00000000E+00  0.00000000E+00
  0.00000000E+00  0.00000000E+00  0.00000000E+00
  0.00000000E+00  0.00000000E+00  0.00000000E+00
  0.00000000E+00  0.00000000E+00  0.00000000E+00
  0.00000000E+00  0.00000000E+00  0.00000000E+00
  0.00000000E+00  0.00000000E+00  0.00000000E+00
  0.00000000E+00  0.00000000E+00  0.00000000E+00
  0.00000000E+00  0.00000000E+00  0.00000000E+00
  0.00000000E+00  0.00000000E+00  0.00000000E+00
  0.00000000E+00  0.00000000E+00  0.00000000E+00
  0.00000000E+00  0.00000000E+00  0.00000000E+00
  0.00000000E+00  0.00000000E+00  0.00000000E+00
  0.00000000E+00  0.00000000E+00  0.00000000E+00
  0.00000000E+00  0.00000000E+00  0.00000000E+00
  0.00000000E+00  0.00000000E+00  0.00000000E+00
  0.00000000E+00  0.00000000E+00  0.00000000E+00
  0.00000000E+00  0.00000000E+00  0.00000000E+00
  0.00000000E+00  0.00000000E+00  0.00000000E+00
  0.00000000E+00  0.00000000E+00  0.00000000E+00
