bilayer_1                               
   1.00000000000000     
    14.6976995467999991    0.0000000000000000    0.0000000000000000
    -7.3488497733999996   12.7285811846999994    0.0000000000000000
     0.0000000000000000    0.0000000000000000   49.2004013061999999
   H    O 
    48    24
Selective dynamics
Direct
  0.1064217637068735  0.1693840097470606  0.2133207823993723   T   T   T
  0.0629622480401872  0.3935782472931308  0.2133207823993723   T   T   T
  0.1693839977470596  0.1064217627068699  0.2133207823993723   T   T   T
  0.3935782312931295  0.0629622470401907  0.2133207823993723   T   T   T
  0.1774750366826617  0.0000000000000000  0.1804053337365460   T   T   T
  0.2396273608463651  0.0000000000000000  0.2081733232558987   T   T   T
  0.3225249453173366  0.3225249443173329  0.1804053337365460   T   T   T
  0.2603726401536317  0.2603726421536318  0.2081733232558987   T   T   T
  0.0000000049999969  0.1774750466826626  0.1804053337365460   T   T   T
  0.0000000029999967  0.2396273678463621  0.2081733232558987   T   T   T
  0.6064217147068733  0.1693840097470606  0.2133207823993723   T   T   T
  0.5629622240401853  0.3935782472931308  0.2133207823993723   T   T   T
  0.4370377689598104  0.3306160192529383  0.2133207823993723   T   T   T
  0.6693839977470595  0.1064217627068699  0.2133207823993723   T   T   T
  0.8935782312931293  0.0629622470401907  0.2133207823993723   T   T   T
  0.6774750206826674  0.0000000000000000  0.1804053337365460   T   T   T
  0.7396273938463639  0.0000000000000000  0.2081733232558987   T   T   T
  0.8225249293173356  0.3225249443173329  0.1804053337365460   T   T   T
  0.7603726241536376  0.2603726421536318  0.2081733232558987   T   T   T
  0.4999999970000033  0.1774750466826626  0.1804053337365460   T   T   T
  0.5000000029999967  0.2396273678463621  0.2081733232558987   T   T   T
  0.3306159962529400  0.4370377439598119  0.2133207823993723   T   T   T
  0.1064217777068676  0.6693840377470557  0.2133207823993723   T   T   T
  0.0629622630401920  0.8935782942931310  0.2133207823993723   T   T   T
  0.1693840187470578  0.6064217717068674  0.2133207823993723   T   T   T
  0.3935782622931285  0.5629622750401859  0.2133207823993723   T   T   T
  0.1774750416826657  0.5000000100000008  0.1804053337365460   T   T   T
  0.2396273658463620  0.5000000100000008  0.2081733232558987   T   T   T
  0.3225249693173385  0.8225249913173336  0.1804053337365460   T   T   T
  0.2603726451536356  0.7603726511536363  0.2081733232558987   T   T   T
  0.0000000269999987  0.6774750756826613  0.1804053337365460   T   T   T
  0.0000000109999974  0.7396274148463621  0.2081733232558987   T   T   T
  0.8306159642529374  0.4370377439598119  0.2133207823993723   T   T   T
  0.6064217457068724  0.6693840377470557  0.2133207823993723   T   T   T
  0.5629622630401920  0.8935782942931310  0.2133207823993723   T   T   T
  0.4370377899598086  0.8306160282529427  0.2133207823993723   T   T   T
  0.6693840187470577  0.6064217717068674  0.2133207823993723   T   T   T
  0.8935782942931310  0.5629622750401859  0.2133207823993723   T   T   T
  0.6774750096826629  0.5000000100000008  0.1804053337365460   T   T   T
  0.7396273818463629  0.5000000100000008  0.2081733232558987   T   T   T
  0.8225249693173389  0.8225249913173336  0.1804053337365460   T   T   T
  0.7603726451536358  0.7603726511536363  0.2081733232558987   T   T   T
  0.5000000269999987  0.6774750756826613  0.1804053337365460   T   T   T
  0.5000000109999974  0.7396274148463621  0.2081733232558987   T   T   T
  0.9370377359598114  0.3306160192529383  0.2133207823993723   T   T   T
  0.9370377569598096  0.8306160282529427  0.2133207823993723   T   T   T
  0.3306160172529382  0.9370377539598129  0.2133207823993723   T   T   T
  0.8306159852529427  0.9370377539598129  0.2133207823993723   T   T   T
  0.1715499221746289  0.0000000000000000  0.2000547582110112   T   T   T
  0.3284500718253703  0.3284500658253698  0.2000547582110112   T   T   T
  0.0000000009999965  0.1715499251746327  0.2000547582110112   T   T   T
  0.3272883991922206  0.0000000000000000  0.2194249919978080   T   T   T
  0.1727115838077815  0.1727115838077815  0.2194249919978080   T   T   T
  0.0000000040000003  0.3272884071922212  0.2194249919978080   T   T   T
  0.6715499221746291  0.0000000000000000  0.2000547582110112   T   T   T
  0.8284500398253678  0.3284500658253698  0.2000547582110112   T   T   T
  0.5000000169999979  0.1715499251746327  0.2000547582110112   T   T   T
  0.8272883991922207  0.0000000000000000  0.2194249919978080   T   T   T
  0.6727116248077812  0.1727115838077816  0.2194249919978080   T   T   T
  0.5000000200000017  0.3272884071922212  0.2194249919978080   T   T   T
  0.1715499271746329  0.5000000100000008  0.2000547582110112   T   T   T
  0.3284501118253665  0.8284501128253703  0.2000547582110112   T   T   T
  0.0000000149999977  0.6715499531746281  0.2000547582110112   T   T   T
  0.3272884041922174  0.5000000100000008  0.2194249919978080   T   T   T
  0.1727115738077807  0.6727116118077766  0.2194249919978080   T   T   T
  0.9999999899999992  0.8272883791922191  0.2194249919978080   T   T   T
  0.6715499111746317  0.5000000100000008  0.2000547582110112   T   T   T
  0.8284500788253675  0.8284501128253703  0.2000547582110112   T   T   T
  0.5000000149999977  0.6715499531746281  0.2000547582110112   T   T   T
  0.8272883881922234  0.5000000100000008  0.2194249919978080   T   T   T
  0.6727116228077811  0.6727116118077766  0.2194249919978080   T   T   T
  0.4999999899999992  0.8272883791922191  0.2194249919978080   T   T   T
 
  0.00000000E+00  0.00000000E+00  0.00000000E+00
  0.00000000E+00  0.00000000E+00  0.00000000E+00
  0.00000000E+00  0.00000000E+00  0.00000000E+00
  0.00000000E+00  0.00000000E+00  0.00000000E+00
  0.00000000E+00  0.00000000E+00  0.00000000E+00
  0.00000000E+00  0.00000000E+00  0.00000000E+00
  0.00000000E+00  0.00000000E+00  0.00000000E+00
  0.00000000E+00  0.00000000E+00  0.00000000E+00
  0.00000000E+00  0.00000000E+00  0.00000000E+00
  0.00000000E+00  0.00000000E+00  0.00000000E+00
  0.00000000E+00  0.00000000E+00  0.00000000E+00
  0.00000000E+00  0.00000000E+00  0.00000000E+00
  0.00000000E+00  0.00000000E+00  0.00000000E+00
  0.00000000E+00  0.00000000E+00  0.00000000E+00
  0.00000000E+00  0.00000000E+00  0.00000000E+00
  0.00000000E+00  0.00000000E+00  0.00000000E+00
  0.00000000E+00  0.00000000E+00  0.00000000E+00
  0.00000000E+00  0.00000000E+00  0.00000000E+00
  0.00000000E+00  0.00000000E+00  0.00000000E+00
  0.00000000E+00  0.00000000E+00  0.00000000E+00
  0.00000000E+00  0.00000000E+00  0.00000000E+00
  0.00000000E+00  0.00000000E+00  0.00000000E+00
  0.00000000E+00  0.00000000E+00  0.00000000E+00
  0.00000000E+00  0.00000000E+00  0.00000000E+00
  0.00000000E+00  0.00000000E+00  0.00000000E+00
  0.00000000E+00  0.00000000E+00  0.00000000E+00
  0.00000000E+00  0.00000000E+00  0.00000000E+00
  0.00000000E+00  0.00000000E+00  0.00000000E+00
  0.00000000E+00  0.00000000E+00  0.00000000E+00
  0.00000000E+00  0.00000000E+00  0.00000000E+00
  0.00000000E+00  0.00000000E+00  0.00000000E+00
  0.00000000E+00  0.00000000E+00  0.00000000E+00
  0.00000000E+00  0.00000000E+00  0.00000000E+00
  0.00000000E+00  0.00000000E+00  0.00000000E+00
  0.00000000E+00  0.00000000E+00  0.00000000E+00
  0.00000000E+00  0.00000000E+00  0.00000000E+00
  0.00000000E+00  0.00000000E+00  0.00000000E+00
  0.00000000E+00  0.00000000E+00  0.00000000E+00
  0.00000000E+00  0.00000000E+00  0.00000000E+00
  0.00000000E+00  0.00000000E+00  0.00000000E+00
  0.00000000E+00  0.00000000E+00  0.00000000E+00
  0.00000000E+00  0.00000000E+00  0.00000000E+00
  0.00000000E+00  0.00000000E+00  0.00000000E+00
  0.00000000E+00  0.00000000E+00  0.00000000E+00
  0.00000000E+00  0.00000000E+00  0.00000000E+00
  0.00000000E+00  0.00000000E+00  0.00000000E+00
  0.00000000E+00  0.00000000E+00  0.00000000E+00
  0.00000000E+00  0.00000000E+00  0.00000000E+00
  0.00000000E+00  0.00000000E+00  0.00000000E+00
  0.00000000E+00  0.00000000E+00  0.00000000E+00
  0.00000000E+00  0.00000000E+00  0.00000000E+00
  0.00000000E+00  0.00000000E+00  0.00000000E+00
  0.00000000E+00  0.00000000E+00  0.00000000E+00
  0.00000000E+00  0.00000000E+00  0.00000000E+00
  0.00000000E+00  0.00000000E+00  0.00000000E+00
  0.00000000E+00  0.00000000E+00  0.00000000E+00
  0.00000000E+00  0.00000000E+00  0.00000000E+00
  0.00000000E+00  0.00000000E+00  0.00000000E+00
  0.00000000E+00  0.00000000E+00  0.00000000E+00
  0.00000000E+00  0.00000000E+00  0.00000000E+00
  0.00000000E+00  0.00000000E+00  0.00000000E+00
  0.00000000E+00  0.00000000E+00  0.00000000E+00
  0.00000000E+00  0.00000000E+00  0.00000000E+00
  0.00000000E+00  0.00000000E+00  0.00000000E+00
  0.00000000E+00  0.00000000E+00  0.00000000E+00
  0.00000000E+00  0.00000000E+00  0.00000000E+00
  0.00000000E+00  0.00000000E+00  0.00000000E+00
  0.00000000E+00  0.00000000E+00  0.00000000E+00
  0.00000000E+00  0.00000000E+00  0.00000000E+00
  0.00000000E+00  0.00000000E+00  0.00000000E+00
  0.00000000E+00  0.00000000E+00  0.00000000E+00
  0.00000000E+00  0.00000000E+00  0.00000000E+00
