au_111_4_layers_5x5_with_h2o_6_bilayers_h_down
1.0
      14.6976995468           0.0000000000           0.0000000000
      -7.3488497734          12.7285811847           0.0000000000
       0.0000000000           0.0000000000          49.2004013062
Au H O
100 96 48
Selective dynamics
Cartesian
       0.0000000000           0.0000000000           0.0000000000 F F F
       2.9396132130           1.6971017600           2.3999956590 T T T
      -0.0000731500           3.3943306000           4.8004832580 T T T
       0.0000000000           0.0000000000           7.2004785510 T T T
      -1.4697699770           2.5457162750           0.0000000000 F F F
       1.4698432360           4.2428180350           2.3999956590 T T T
       1.4696964980           0.8486145150           4.8004832580 T T T
      -1.4697699770           2.5457162750           7.2004785510 T T T
       1.4697699770           2.5457162750           0.0000000000 F F F
      -1.4696966070           4.2428180350           2.3999956590 T T T
       4.4092364510           0.8486145150           4.8004832580 T T T
       1.4697699770           2.5457162750           7.2004785510 T T T
       2.9395399530           0.0000000000           0.0000000000 F F F
       0.0000734790           1.6971017600           2.3999956590 T T T
       2.9394665840           3.3943306000           4.8004832580 T T T
       2.9395399530           0.0000000000           7.2004785510 T T T
       5.8790799060           0.0000000000           0.0000000000 F F F
       8.8186935570           1.6971017600           2.3999956590 T T T
       5.8790067560           3.3943306000           4.8004832580 T T T
       5.8790799060           0.0000000000           7.2004785510 T T T
       4.4093099300           2.5457162750           0.0000000000 F F F
       7.3489227050           4.2428180350           2.3999956590 T T T
       7.3487766230           0.8486145150           4.8004832580 T T T
       4.4093099300           2.5457162750           7.2004785510 T T T
       7.3488501020           2.5457162750           0.0000000000 F F F
       4.4093834090           4.2428180350           2.3999956590 T T T
      10.2884626580           0.8486145150           4.8004832580 T T T
       7.3488501020           2.5457162750           7.2004785510 T T T
       8.8186200790           0.0000000000           0.0000000000 F F F
       5.8791533850           1.6971017600           2.3999956590 T T T
       8.8186936670           3.3943306000           4.8004832580 T T T
       8.8186200790           0.0000000000           7.2004785510 T T T
      11.7581598130           0.0000000000           0.0000000000 F F F
      11.7582334010           3.3943306000           4.8004832580 T T T
      11.7581598130           0.0000000000           7.2004785510 T T T
      10.2883889600           2.5457162750           0.0000000000 F F F
      13.2280023920           0.8486145150           4.8004832580 T T T
      10.2883889600           2.5457162750           7.2004785510 T T T
      10.2884633150           4.2428180350           2.3999956590 T T T
      11.7582332910           1.6971017600           2.3999956590 T T T
      -2.9395399530           5.0914325500           0.0000000000 F F F
       0.0000731500           6.7885345000           2.3999956590 T T T
      -2.9396133220           8.4857635290           4.8004832580 T T T
      -2.9395399530           5.0914325500           7.2004785510 T T T
      -4.4093100390           7.6371490140           0.0000000000 F F F
      -1.4697698670           9.3343780440           2.3999956590 T T T
      -1.4698434550           5.9400474440           4.8004832580 T T T
      -4.4093100390           7.6371490140           7.2004785510 T T T
      -1.4697698670           7.6371490140           0.0000000000 F F F
      -4.4093097110           9.3343780440           2.3999956590 T T T
       1.4696962790           5.9400474440           4.8004832580 T T T
      -1.4697698670           7.6371490140           7.2004785510 T T T
       0.0000000000           5.0914325500           0.0000000000 F F F
      -2.9394665840           6.7885345000           2.3999956590 T T T
      -0.0000735880           8.4857635290           4.8004832580 T T T
       0.0000000000           5.0914325500           7.2004785510 T T T
       2.9395399530           5.0914325500           0.0000000000 F F F
       5.8791534950           6.7885345000           2.3999956590 T T T
       2.9394665840           8.4857635290           4.8004832580 T T T
       2.9395399530           5.0914325500           7.2004785510 T T T
       1.4697703050           7.6371490140           0.0000000000 F F F
       4.4093100390           9.3343780440           2.3999956590 T T T
       4.4092364510           5.9400474440           4.8004832580 T T T
       1.4697703050           7.6371490140           7.2004785510 T T T
       4.4093100390           7.6371490140           0.0000000000 F F F
       1.4697698670           9.3343780440           2.3999956590 T T T
       7.3489233620           5.9400474440           4.8004832580 T T T
       4.4093100390           7.6371490140           7.2004785510 T T T
       5.8790801250           5.0914325500           0.0000000000 F F F
       2.9396133220           6.7885345000           2.3999956590 T T T
       5.8791534950           8.4857635290           4.8004832580 T T T
       5.8790801250           5.0914325500           7.2004785510 T T T
       8.8186198590           5.0914325500           0.0000000000 F F F
       8.8186932290           8.4857635290           4.8004832580 T T T
       8.8186198590           5.0914325500           7.2004785510 T T T
       7.3488497730           7.6371490140           0.0000000000 F F F
      10.2884630960           5.9400474440           4.8004832580 T T T
       7.3488497730           7.6371490140           7.2004785510 T T T
       7.3488497730           9.3343780440           2.3999956590 T T T
       8.8186932290           6.7885345000           2.3999956590 T T T
      -5.8790799060          10.1828651000           0.0000000000 F F F
      -2.9395401720          11.8800948870           2.3999956590 T T T
      -5.8790799060          10.1828651000           7.2004785510 T T T
      -4.4093831900          11.0314796140           4.8004832580 T T T
      -1.4698434550          11.0314796140           4.8004832580 T T T
      -2.9395399530          10.1828651000           0.0000000000 F F F
      -5.8790800160          11.8800948870           2.3999956590 T T T
      -2.9395399530          10.1828651000           7.2004785510 T T T
       0.0000000000          10.1828651000           0.0000000000 F F F
       2.9395397340          11.8800948870           2.3999956590 T T T
       0.0000000000          10.1828651000           7.2004785510 T T T
       1.4696967170          11.0314796140           4.8004832580 T T T
       4.4093836280          11.0314796140           4.8004832580 T T T
       2.9395401720          10.1828651000           0.0000000000 F F F
       0.0000000000          11.8800948870           2.3999956590 T T T
       2.9395401720          10.1828651000           7.2004785510 T T T
       5.8790799060          10.1828651000           0.0000000000 F F F
       5.8790799060          10.1828651000           7.2004785510 T T T
       7.3489233620          11.0314796140           4.8004832580 T T T
       5.8790794680          11.8800948870           2.3999956590 T T T
       2.0217908380           0.8023578290          14.5310325560 T T T
       3.3583916210           4.2121896410          14.5310325560 T T T
       0.3143049270           2.1526760330          10.5173621500 T T T
      -1.9673052740           5.0157566200          10.5173621500 T T T
       1.7071194480           1.3485340670          10.5173621500 T T T
       5.3274248510           0.8041419650          10.5173621500 T T T
      -0.3160331570           2.1521013310          14.5310325560 T T T
       1.9686674240           5.0145472800          14.5310325560 T T T
       2.5932018870           0.0000000000           8.9004377470 T T T
       3.5074252250           0.0000000000          10.2606476910 T T T
       2.3778238340           4.1185116910           8.9004377470 T T T
       1.9207123840           3.3267714350          10.2606476910 T T T
      -1.2966009440           2.2457787120           8.9004377470 T T T
      -1.7537127220           3.0375195360          10.2606476910 T T T
       4.7475376230           0.0000000000          12.9069035550 T T T
       3.8397953120           0.0000000000          14.2751729410 T T T
       1.3006557460           2.2528022150          12.9069035550 T T T
       1.7545271210           3.0389304960          14.2751729410 T T T
      -2.3737688120           4.1114881870          12.9069035550 T T T
      -1.9198976560           3.3253602860          14.2751729410 T T T
       9.3706403920           0.8023578290          14.5310325560 T T T
      10.7072413940           4.2121896410          14.5310325560 T T T
       5.6430922560           1.3497434070          14.5310325560 T T T
       7.6631537140           2.1526760330          10.5173621500 T T T
       5.3815437330           5.0157566200          10.5173621500 T T T
       3.9887299230           4.2116149390          10.5173621500 T T T
       9.0559694410           1.3485340670          10.5173621500 T T T
      12.6762750620           0.8041419650          10.5173621500 T T T
       7.0328162880           2.1521013310          14.5310325560 T T T
       9.3175163220           5.0145472800          14.5310325560 T T T
       9.9420523180           0.0000000000           8.9004377470 T T T
      10.8562756560           0.0000000000          10.2606476910 T T T
       9.7266731690           4.1185116910           8.9004377470 T T T
       9.2695621570           3.3267714350          10.2606476910 T T T
       6.0522488300           2.2457787120           8.9004377470 T T T
       5.5951370510           3.0375195360          10.2606476910 T T T
      12.0963882730           0.0000000000          12.9069035550 T T T
      11.1886450860           0.0000000000          14.2751729410 T T T
       8.6495042060           2.2528022150          12.9069035550 T T T
       9.1033768950           3.0389304960          14.2751729410 T T T
       4.9750809620           4.1114881870          12.9069035550 T T T
       5.4289521170           3.3253602860          14.2751729410 T T T
      -1.6526341580           7.1666489900          14.5310325560 T T T
      -0.3160328280          10.5764802330          14.5310325560 T T T
       1.6530003480           5.5601485320          10.5173621500 T T T
      -3.3601197410           8.5169666250          10.5173621500 T T T
      -5.6417303800          11.3800479710          10.5173621500 T T T
      -1.9673051650           7.7128245650          10.5173621500 T T T
       1.6530007860           7.1684326530          10.5173621500 T T T
      -3.9904584810           8.5163930610          14.5310325560 T T T
      -1.7057579010          11.3788386310          14.5310325560 T T T
      -1.6526340490           5.5619325740          14.5310325560 T T T
      -1.0812229990           6.3642905920           8.9004377470 T T T
      -0.1669996620           6.3642905920          10.2606476910 T T T
      -1.2966008340          10.4828026630           8.9004377470 T T T
      -1.7537125030           9.6910620280          10.2606476910 T T T
      -4.9710261590           8.6100698730           8.9004377470 T T T
      -5.4281378280           9.4018105080          10.2606476910 T T T
       1.0731131750           6.3642905920          12.9069035550 T T T
       0.1653708630           6.3642905920          14.2751729410 T T T
      -2.3737688120           8.6170929970          12.9069035550 T T T
      -1.9198983130           9.4032224160          14.2751729410 T T T
      -6.0481941360          10.4757795380          12.9069035550 T T T
      -5.5943225430           9.6896508780          14.2751729410 T T T
       5.6962160530           7.1666489900          14.5310325560 T T T
       7.0328165070          10.5764802330          14.5310325560 T T T
       1.9686678620           7.7140339050          14.5310325560 T T T
       9.0018501210           5.5601485320          10.5173621500 T T T
       3.9887297040           8.5169666250          10.5173621500 T T T
       1.7071192840          11.3800479710          10.5173621500 T T T
       0.3143052550          10.5759059110          10.5173621500 T T T
       5.3815446090           7.7128245650          10.5173621500 T T T
       9.0018509970           7.1684326530          10.5173621500 T T T
       3.3583916210           8.5163930610          14.5310325560 T T T
       5.6430918730          11.3788386310          14.5310325560 T T T
       5.6962149580           5.5619325740          14.5310325560 T T T
       6.2676265550           6.3642905920           8.9004377470 T T T
       7.1818507690           6.3642905920          10.2606476910 T T T
       6.0522489390          10.4828026630           8.9004377470 T T T
       5.5951372700           9.6910620280          10.2606476910 T T T
       2.3778236140           8.6100698730           8.9004377470 T T T
       1.9207119460           9.4018105080          10.2606476910 T T T
       8.4219625100           6.3642905920          12.9069035550 T T T
       7.5142201990           6.3642905920          14.2751729410 T T T
       4.9750809620           8.6170929970          12.9069035550 T T T
       5.4289521170           9.4032224160          14.2751729410 T T T
       1.3006556370          10.4757795380          12.9069035550 T T T
       1.7545272310           9.6896508780          14.2751729410 T T T
      12.9919411530           1.3497434070          14.5310325560 T T T
      11.3375801340           4.2116149390          10.5173621500 T T T
       9.3175171980           7.7140339050          14.5310325560 T T T
       7.6631541520          10.5759059110          10.5173621500 T T T
      -2.0214236630          11.9244391240          10.5173621500 T T T
      -5.3270587160          11.9262235460          14.5310325560 T T T
       5.3274252340          11.9244391240          10.5173621500 T T T
       2.0217907290          11.9262235460          14.5310325560 T T T
       2.5091154310           0.0000000000           9.8673538020 T T T
       2.5369366260           0.0000000000          14.8225185260 T T T
       2.4198670620           4.1913326990           9.8673538020 T T T
       2.4059564640           4.1672388370          14.8225185260 T T T
      -1.2545577150           2.1729577040           9.8673538020 T T T
      -1.2684683130           2.1970515660          14.8225185260 T T T
       4.8336341790           0.0000000000          13.8756715300 T T T
       4.8076066990           0.0000000000          10.7977336710 T T T
       1.2576079070           2.1782407900          13.8756715300 T T T
       1.2706213180           2.2007806800          10.7977336710 T T T
      -2.4168168710           4.1860496130          13.8756715300 T T T
      -2.4038035690           4.1635099120          10.7977336710 T T T
       9.8579654230           0.0000000000           9.8673538020 T T T
       9.8857870560           0.0000000000          14.8225185260 T T T
       9.7687168350           4.1913326990           9.8673538020 T T T
       9.7548058000           4.1672388370          14.8225185260 T T T
       6.0942920580           2.1729577040           9.8673538020 T T T
       6.0803814610           2.1970515660          14.8225185260 T T T
      12.1824830770           0.0000000000          13.8756715300 T T T
      12.1564573490           0.0000000000          10.7977336710 T T T
       8.6064574610           2.1782407900          13.8756715300 T T T
       8.6194715290           2.2007806800          10.7977336710 T T T
       4.9320329030           4.1860496130          13.8756715300 T T T
       4.9450462050           4.1635099120          10.7977336710 T T T
      -1.1653094560           6.3642905920           9.8673538020 T T T
      -1.1374882610           6.3642905920          14.8225185260 T T T
      -1.2545573870          10.5556240500           9.8673538020 T T T
      -1.2684682030          10.5315290500          14.8225185260 T T T
      -4.9289827120           8.5372484860           9.8673538020 T T T
      -4.9428939660           8.5613434860          14.8225185260 T T T
       1.1592092930           6.3642905920          13.8756715300 T T T
       1.1331822510           6.3642905920          10.7977336710 T T T
      -2.4168170900           8.5425319510          13.8756715300 T T T
      -2.4038042260           8.5650724100          10.7977336710 T T T
      -6.0912419760          10.5503405840          13.8756715300 T T T
      -6.0782286740          10.5278008840          10.7977336710 T T T
       6.1835396600           6.3642905920           9.8673538020 T T T
       6.2113621690           6.3642905920          14.8225185260 T T T
       6.0942915100          10.5556240500           9.8673538020 T T T
       6.0803811320          10.5315290500          14.8225185260 T T T
       2.4198670620           8.5372484860           9.8673538020 T T T
       2.4059558070           8.5613434860          14.8225185260 T T T
       8.5080581900           6.3642905920          13.8756715300 T T T
       8.4820315860           6.3642905920          10.7977336710 T T T
       4.9320322460           8.5425319510          13.8756715300 T T T
       4.9450459860           8.5650724100          10.7977336710 T T T
       1.2576086730          10.5503405840          13.8756715300 T T T
       1.2706210990          10.5278008840          10.7977336710 T T T
