au_111_4_layers_5x5_with_h2o_6_bilayers_
   1.00000000000000     
    14.6976995467999991    0.0000000000000000    0.0000000000000000
    -7.3488497733999996   12.7285811846999994    0.0000000000000000
     0.0000000000000000    0.0000000000000000   49.2004013061999999
   Au   H    O 
   100    96    48
Selective dynamics
Direct
  0.0000000000000000  0.0000000000000000  0.0000000000000000   F   F   F
  0.2680190086464266  0.1341562771909908  0.0471156822251655   T   T   T
  0.1323938802489883  0.2674943025589855  0.0941722239877818   T   T   T
  0.0000171875004112  0.0000221111956358  0.1403788376457757   T   T   T
  0.9999999999764526  0.2000000029901230  0.0000000000000000   F   F   F
  0.2657323718070752  0.3337885266481055  0.0475663962169671   T   T   T
  0.1338944216628082  0.0659372379514192  0.0937018900440927   T   T   T
 -0.0006011469630150  0.2009038479359729  0.1418996641957954   T   T   T
  0.2000000030136633  0.2000000029901230  0.0000000000000000   F   F   F
  0.0663859422718091  0.3337541677395284  0.0471352619095659   T   T   T
  0.3330903564515141  0.0660615288056100  0.0944891360505175   T   T   T
  0.1983674897578726  0.1989043325537161  0.1401916943995377   T   T   T
  0.2000000029691691  0.0000000000000000  0.0000000000000000   F   F   F
  0.0676977921246473  0.1334866311749467  0.0471633251367953   T   T   T
  0.3340050199083399  0.2665611971522830  0.0940122065037841   T   T   T
  0.2014768493474302  0.0007429584626970  0.1419044911108313   T   T   T
  0.4000000059383453  0.0000000000000000  0.0000000000000000   F   F   F
  0.6668081052531150  0.1341802109761759  0.0471906269844118   T   T   T
  0.5342272249744349  0.2677835988102016  0.0943650705618062   T   T   T
  0.4011492766218556 -0.0000320594802376  0.1414855157035105   T   T   T
  0.4000000059828395  0.2000000029901230  0.0000000000000000   F   F   F
  0.6666676450260203  0.3333411382211036  0.0471641890691439   T   T   T
  0.5347553124721126  0.0661018399496084  0.0947566456102314   T   T   T
  0.4005769566892822  0.2001697865168558  0.1412875393364004   T   T   T
  0.6000000238523029  0.2000000029901230  0.0000000000000000   F   F   F
  0.4673619325515033  0.3332142231043801  0.0471856090413239   T   T   T
  0.7334789082270018  0.0675184324130950  0.0940216903784950   T   T   T
  0.5998209781821668  0.2001152324706746  0.1419389299378901   T   T   T
  0.6000000238758432  0.0000000000000000  0.0000000000000000   F   F   F
  0.4667236745998901  0.1325905604541449  0.0479034978189868   T   T   T
  0.7322219305507702  0.2665224700103888  0.0943707973426426   T   T   T
  0.6011743530185018 -0.0001011584870097  0.1423105087941682   T   T   T
  0.8000000119447250  0.0000000000000000  0.0000000000000000   F   F   F
  0.9339518748805365  0.2670853004508535  0.0944842673750991   T   T   T
  0.8012691826382584 -0.0003197244578252  0.1401848471405594   T   T   T
  0.7999999523200216  0.2000000029901230  0.0000000000000000   F   F   F
  0.9341384972504749  0.0680162693757057  0.0936965089957198   T   T   T
  0.7998958966519680  0.2005295332913942  0.1412957132930069   T   T   T
  0.8674163956227701  0.3341761553456956  0.0479008781922437   T   T   T
  0.8658701747750833  0.1338942755201988  0.0471184808252838   T   T   T
  0.0000000000209468  0.4000000059802389  0.0000000000000000   F   F   F
  0.2681437312066713  0.5339170506068753  0.0475070272017825   T   T   T
  0.1332893873644376  0.6663402909286454  0.0947784208730187   T   T   T
  0.0000883850954985  0.4012837547693592  0.1414746088361634   T   T   T
  0.0000000000055138  0.6000000238188363  0.0000000000000000   F   F   F
  0.2657712359944613  0.7318838889681479  0.0475081053697896   T   T   T
  0.1329517246207525  0.4673264624694552  0.0938848217967069   T   T   T
  0.0001300180810489  0.6013201284849399  0.1423077251444591   T   T   T
  0.2000000178749772  0.6000000238188363  0.0000000000000000   F   F   F
  0.0680462267399958  0.7342915607029477  0.0475640865183825   T   T   T
  0.3337197419795839  0.4669922279474014  0.0947694805414603   T   T   T
  0.2000687606628329  0.5998825697433376  0.1419462342576971   T   T   T
  0.2000000029901230  0.4000000059802389  0.0000000000000000   F   F   F
  0.0659277664314296  0.5337386902158764  0.0472686456401011   T   T   T
  0.3333685426996833  0.6667025379750380  0.0948011637535429   T   T   T
  0.1992320372670822  0.4003971513599192  0.1412844729455311   T   T   T
  0.4000000059592921  0.4000000059802389  0.0000000000000000   F   F   F
  0.6658592351935479  0.5332958757924730  0.0478985128420198   T   T   T
  0.5327689494225798  0.6657057941932576  0.0938815734887190   T   T   T
  0.3987219642355721  0.3989136649909264  0.1422911717011245   T   T   T
  0.4000000357444407  0.6000000238188363  0.0000000000000000   F   F   F
  0.6662703397706868  0.7326649283913241  0.0471317678685216   T   T   T
  0.5313590656993052  0.4653059915394028  0.0947430654481647   T   T   T
  0.4003325095964698  0.6003578013183543  0.1419331940581090   T   T   T
  0.6000000238133225  0.6000000238188363  0.0000000000000000   F   F   F
  0.4661416617915661  0.7342926211435151  0.0475057258800580   T   T   T
  0.7335294897445542  0.4657904925919095  0.0943652731150989   T   T   T
  0.5988955843922535  0.5989275859659429  0.1414660267113259   T   T   T
  0.6000000238287555  0.4000000059802389  0.0000000000000000   F   F   F
  0.4662774054607013  0.5322156846745866  0.0472674542032853   T   T   T
  0.7330097626426370  0.6669638240563335  0.0944803433877744   T   T   T
  0.6002589840301574  0.4001879240865034  0.1419246973949821   T   T   T
  0.8000000118976374  0.4000000059802389  0.0000000000000000   F   F   F
  0.9325646402088650  0.6660149417471950  0.0940118332101176   T   T   T
  0.7999164432619452  0.3997652747790204  0.1419373954681920   T   T   T
  0.8000000118822044  0.6000000238188363  0.0000000000000000   F   F   F
  0.9339230253836891  0.4687000703957105  0.0947476925145294   T   T   T
  0.7995632439078056  0.5994489096138148  0.1412839930087489   T   T   T
  0.8661459233605676  0.7320231390969355  0.0471120840951275   T   T   T
  0.8658358195069045  0.5326692373455675  0.0471810960075691   T   T   T
  0.0000000000419007  0.8000000119604849  0.0000000000000000   F   F   F
  0.2673677530772208  0.9336205888737158  0.0471368175695862   T   T   T
  0.0005036705354389  0.8016704757030380  0.1401895261939736   T   T   T
  0.1350869091663517  0.8676400057609358  0.0941674911228371   T   T   T
  0.3343557644443265  0.8670847403455042  0.0938928194656640   T   T   T
  0.2000000030110698  0.8000000119604849  0.0000000000000000   F   F   F
  0.0657961695726464  0.9323539997298742  0.0471646240108191   T   T   T
  0.2010627115641593  0.8009389312822334  0.1412912228459809   T   T   T
  0.4000000059802389  0.8000000119604849  0.0000000000000000   F   F   F
  0.6662799442611299  0.9320325614473430  0.0475686918122823   T   T   T
  0.3998034454061669  0.7999892502482995  0.1419373425723906   T   T   T
  0.5330820295098374  0.8667825397295894  0.0947764782304185   T   T   T
  0.7326180595422849  0.8649804936434671  0.0941659399533341   T   T   T
  0.6000000238497023  0.8000000119604849  0.0000000000000000   F   F   F
  0.4678117466194747  0.9340914197932153  0.0472708150415646   T   T   T
  0.6000057832100829  0.7990810231071871  0.1412743463436034   T   T   T
  0.8000000119185842  0.8000000119604849  0.0000000000000000   F   F   F
  0.7993091991639472  0.7986036074683226  0.1419108984456798   T   T   T
  0.9320525387291870  0.8661292413006753  0.0936975294288711   T   T   T
  0.8665544905025371  0.9342402678040059  0.0471649582440255   T   T   T
  0.1719676664243042  0.0643223944078760  0.1984855891109986   T   T   T
  0.4011581341243511  0.3378368312461607  0.2035424948346079   T   T   T
  0.1055598414281509  0.1683237277458077  0.2736704259074459   T   T   T
  0.0622703325034359  0.3970170456901539  0.2797385901958441   T   T   T
  0.1683679913584659  0.1056196043391205  0.2736592906782501   T   T   T
  0.3970735462834673  0.0622150137784808  0.2797884690551922   T   T   T
  0.0639054077764767  0.1719382365838289  0.1984469402719489   T   T   T
  0.3378237689139039  0.4011765095881158  0.2034360976143815   T   T   T
  0.1675269480785581  0.0000698284526781  0.3072958929166077   T   T   T
  0.2364300079203611 -0.0000420099752867  0.2816423288457673   T   T   T
  0.3025635586061312  0.3030508038426960  0.3136016838528234   T   T   T
  0.2593098945511029  0.2594037209517671  0.2834217432886252   T   T   T
  0.9999766671380358  0.1674303028475430  0.3073009420567136   T   T   T
 -0.0001150027730732  0.2363412455413918  0.2816470292312718   T   T   T
  0.3346791899679856 -0.0000468992160152  0.2338544995303792   T   T   T
  0.2737480365540861  0.0001649645049578  0.2064546071795669   T   T   T
  0.1751228200258836  0.1753188446147389  0.2294331887755163   T   T   T
  0.2389288274597444  0.2390451191480675  0.2027984297638603   T   T   T
 -0.0003471172662188  0.3345363546188938  0.2338582227813231   T   T   T
 -0.0003003010045651  0.2735469257427226  0.2064545532031754   T   T   T
  0.6619503375560056  0.0630906413157766  0.2035457989170361   T   T   T
  0.8914794309446523  0.3388435210264188  0.2027157924828809   T   T   T
  0.4471495242604959  0.1081895979798121  0.2027232894020656   T   T   T
  0.6066164010351239  0.1656285686019007  0.2840789871255419   T   T   T
  0.5592917018652481  0.3931521484782081  0.2840682048661916   T   T   T
  0.4328723101871806  0.3274992404163448  0.2839026220263020   T   T   T
  0.6725310491543591  0.1051004346982634  0.2839854818611487   T   T   T
  0.8945699680461169  0.0626955183628460  0.2736577893572000   T   T   T
  0.5723186302392542  0.1721720482069685  0.2066838113042791   T   T   T
  0.8273178787632436  0.3998791923261922  0.2066724498464056   T   T   T
  0.6973946115770919 -0.0005677759690091  0.3136801826126450   T   T   T
  0.7409323347114706 -0.0000916376185586  0.2834736656713753   T   T   T
  0.8351407276465106  0.3264800870836854  0.3155285927977109   T   T   T
  0.7667074947636375  0.2654343973746165  0.2889762184371977   T   T   T
  0.4910228476981572  0.1645233636055749  0.3155285426657042   T   T   T
  0.4986226983935321  0.2329802947845317  0.2889615253352811   T   T   T
  0.8247182624970175 -0.0000622232365440  0.2294198837664188   T   T   T
  0.7609320502505929 -0.0000983392540289  0.2027840090571383   T   T   T
  0.6775672438733389  0.1711036319362715  0.2393270404066772   T   T   T
  0.7370743390632356  0.2373179938071356  0.2117285863630380   T   T   T
  0.4938422908548007  0.3223920495778859  0.2392792459386892   T   T   T
  0.5003522505881794  0.2627824623542611  0.2116859744049109   T   T   T
  0.1718084084670511  0.5721283257102604  0.2064681698668781   T   T   T
  0.3999127970425488  0.8276177478835016  0.2064336723153559   T   T   T
  0.3276030125700716  0.4329535138143850  0.2837053190242643   T   T   T
  0.1051069534181163  0.6724130954933812  0.2838044897262958   T   T   T
  0.0627966375596174  0.8946155178803249  0.2736599877237473   T   T   T
  0.1656320767645670  0.6064989024631704  0.2838413527075301   T   T   T
  0.3932602962794342  0.5593641421752608  0.2838327214803735   T   T   T
  0.0629780503858009  0.6618638904589141  0.2034453216564118   T   T   T
  0.3389811629312882  0.8920107117754638  0.2026405106754201   T   T   T
  0.1076159238086151  0.4468389801481631  0.2026519916142550   T   T   T
  0.1651345952593903  0.4914608738287405  0.3153472964850143   T   T   T
  0.2332021496072366  0.4987070205892573  0.2887283153379158   T   T   T
  0.3264614288180891  0.8345469836466760  0.3153381099217958   T   T   T
  0.2653696179522305  0.7664946853927961  0.2887436684007625   T   T   T
  0.0004510995297478  0.6979104432120121  0.3136864720572469   T   T   T
  0.0001351851954275  0.7410159253585866  0.2834752542673238   T   T   T
  0.3223048998942523  0.4940259742010968  0.2390348645479012   T   T   T
  0.2625349790174739  0.5003241979959959  0.2114507435477424   T   T   T
  0.1712405350268004  0.6776212071174761  0.2391025196627788   T   T   T
  0.2373572113660961  0.7372657778423578  0.2115069183404848   T   T   T
  0.0003189530937439  0.8248520836359134  0.2294155555004783   T   T   T
  0.0000702584379247  0.7609761084404296  0.2027771072477770   T   T   T
  0.6610607779267214  0.5531408642111106  0.2027254686623043   T   T   T
  0.8927023599345212  0.8284212666065436  0.1984819733773930   T   T   T
  0.4280269403820071  0.5996307865121360  0.2063936631648418   T   T   T
  0.8341412404170396  0.4409422732656451  0.2840491206906949   T   T   T
  0.6028093605624962  0.6652723173272272  0.2798356278162555   T   T   T
  0.5673289968844268  0.8947822929519973  0.2837394207029158   T   T   T
  0.4408964526862946  0.8340971583441336  0.2837791522196407   T   T   T
  0.6652282190107343  0.6027677295462212  0.2798733779215125   T   T   T
  0.8948249130050003  0.5673941260925424  0.2839597130833418   T   T   T
  0.5534231834452337  0.6608405465716422  0.2026352752042076   T   T   T
  0.8285244675519716  0.8923496148403852  0.1984447122802868   T   T   T
  0.5997342562728044  0.4278674487704580  0.2066230522766336   T   T   T
  0.6735100326049671  0.5085362550471284  0.3155793150760834   T   T   T
  0.7345789994579000  0.5013604471830541  0.2890006730453215   T   T   T
  0.8327464356120414  0.8326488290041387  0.3073701541849315   T   T   T
  0.7636427809774591  0.7635707145699618  0.2817486357930593   T   T   T
  0.5080657379995797  0.6736539210143151  0.3154170700323886   T   T   T
  0.5012922432574596  0.7346491416842692  0.2887728141745925   T   T   T
  0.8282755592193486  0.5062446328534022  0.2392841598765836   T   T   T
  0.7620890250804926  0.4996513813083752  0.2116782838168455   T   T   T
  0.6657941919934168  0.6656936653175112  0.2339366165930572   T   T   T
  0.7269381443342162  0.7267315045339841  0.2065286092728461   T   T   T
  0.5061205322785216  0.8280626716316062  0.2390004121566103   T   T   T
  0.4997082203625005  0.7619727099319236  0.2114010358071718   T   T   T
  0.9358288951651044  0.1078088324911435  0.1984741919099091   T   T   T
  0.9373476219160671  0.3345898017823762  0.2797912072971543   T   T   T
  0.9363028628494972  0.5985722330067749  0.2035175014682988   T   T   T
  0.9372875922387071  0.8317790841351000  0.2736652406192731   T   T   T
  0.3345729363162284  0.9372912525460516  0.2797315134928562   T   T   T
  0.1081224133895722  0.9362380765673138  0.1984412013874401   T   T   T
  0.8318219610371697  0.9371867328295519  0.2736757450427245   T   T   T
  0.5986319581294015  0.9364099811888444  0.2034018362092106   T   T   T
  0.1685511316180832  0.0000668588349164  0.2874221088552640   T   T   T
  0.1768767791758536  0.0003694586026800  0.1938157739950902   T   T   T
  0.3197770436209161  0.3199372898455832  0.2944079746716953   T   T   T
  0.3415421307027749  0.3414490842067495  0.1946376713762981   T   T   T
 -0.0000052292550348  0.1684647928921291  0.2874270171053186   T   T   T
 -0.0001804168902563  0.1766412675262961  0.1938127600452761   T   T   T
  0.3386042418515109 -0.0000045767799471  0.2138818954500249   T   T   T
  0.3345060207247456 -0.0001763635690868  0.2716988293973825   T   T   T
  0.1723458418201939  0.1725695150865589  0.2093988588953992   T   T   T
  0.1716147007399168  0.1716499022515075  0.2670315625367227   T   T   T
 -0.0003469096014773  0.3384600664356117  0.2138860010108585   T   T   T
 -0.0002553318114677  0.3344222326388324  0.2717024940288742   T   T   T
  0.6804639992974421 -0.0001615863538264  0.2944919876886231   T   T   T
  0.6583324097941355 -0.0000967773777582  0.1946129527927745   T   T   T
  0.8336888268814899  0.3324792151542231  0.2957966837663738   T   T   T
  0.8223273933160866  0.3341699752746705  0.1990604407939850   T   T   T
  0.4984969575141818  0.1659232351943393  0.2957977158014556   T   T   T
  0.5116943704610850  0.1772764832897139  0.1990539359702073   T   T   T
  0.8274934098173978 -0.0000044245754660  0.2093858325242381   T   T   T
  0.8285452674775472 -0.0000754488708985  0.2670224631304496   T   T   T
  0.6742811906128954  0.1681955236723871  0.2193743550700168   T   T   T
  0.6727065511849217  0.1695371610136243  0.2773040177153863   T   T   T
  0.4941298140147160  0.3256418275077052  0.2193257316098753   T   T   T
  0.4970899541413224  0.3271563741055938  0.2772584039572021   T   T   T
  0.1661976846071604  0.4985938930173216  0.2956090322381302   T   T   T
  0.1766514561869777  0.5113156774951616  0.1988624488452756   T   T   T
  0.3323973635089509  0.8334205253113683  0.2955974649201928   T   T   T
  0.3342506197916114  0.8228912196484302  0.1988693239344998   T   T   T
  0.0001644674400139  0.6806097911859131  0.2945010189203110   T   T   T
 -0.0004226035397468  0.6581336069097642  0.1946130261600205   T   T   T
  0.3255209276194095  0.4943412628256795  0.2190799048625982   T   T   T
  0.3273183999302592  0.4971378306911200  0.2770046439305401   T   T   T
  0.1683597049518923  0.6743536818091845  0.2191481263318381   T   T   T
  0.1694452715308394  0.6725455886276761  0.2770607475602924   T   T   T
  0.0004002025593113  0.8276530562542883  0.2093816647587706   T   T   T
  0.0000663196928837  0.8285667498293593  0.2670187072142781   T   T   T
  0.6675143419098535  0.5012117243418716  0.2958447854173419   T   T   T
  0.6654333509504315  0.4885430554267553  0.1989947371037442   T   T   T
  0.8315949883923354  0.8315160903461472  0.2874966213478857   T   T   T
  0.8238456994399115  0.8235570603192752  0.1938361387639412   T   T   T
  0.5011114982769608  0.6676345500966202  0.2956757418788508   T   T   T
  0.4888990159118564  0.6652321515736974  0.1987820938726242   T   T   T
  0.8310919430516817  0.5057240214585113  0.2193317146211062   T   T   T
  0.8303409106015294  0.5031846801453465  0.2772782481326382   T   T   T
  0.6619610935277613  0.6618376698841244  0.2139643080524251   T   T   T
  0.6654215529429801  0.6653716696526502  0.2718037147490847   T   T   T
  0.5055513120178493  0.8308578674161097  0.2190474952622103   T   T   T
  0.5031818188569601  0.8303817383575587  0.2770000292918938   T   T   T
