au_111_4_layers_5x5_with_h2o_6_bilayers_
   1.00000000000000     
    14.6976995467999991    0.0000000000000000    0.0000000000000000
    -7.3488497733999996   12.7285811846999994    0.0000000000000000
     0.0000000000000000    0.0000000000000000   49.2004013061999999
   Au
   100
Selective dynamics
Direct
  0.0000000000000000  0.0000000000000000  0.0000000000000000   F   F   F
  0.2667363891905223  0.1333663901471114  0.0473543507948207   T   T   T
  0.1334230786529985  0.2668365977958420  0.0942424999761824   T   T   T
 -0.0000156447069894 -0.0000136317154152  0.1414832647626232   T   T   T
  0.9999999999764526  0.2000000029901230  0.0000000000000000   F   F   F
  0.2667391711046162  0.3334372784973575  0.0473855105100470   T   T   T
  0.1334175021805624  0.0667083963777649  0.0941782407585022   T   T   T
 -0.0000071933956849  0.1999288389659575  0.1415627133128506   T   T   T
  0.2000000030136633  0.2000000029901230  0.0000000000000000   F   F   F
  0.0666972529373911  0.3334310562557883  0.0473866500444576   T   T   T
  0.3334454619587755  0.0666093480567090  0.0942346115803194   T   T   T
  0.1999311809421062  0.1999271501060277  0.1415648562213308   T   T   T
  0.2000000029691691  0.0000000000000000  0.0000000000000000   F   F   F
  0.0667360636565116  0.1334615964931443  0.0473393366706815   T   T   T
  0.3334457264967269  0.2668249449236930  0.0942335161454722   T   T   T
  0.1999363898426635  0.0000068737886781  0.1415649197315984   T   T   T
  0.4000000059383453  0.0000000000000000  0.0000000000000000   F   F   F
  0.6666348874190163  0.1333899129745153  0.0473303455811985   T   T   T
  0.5333337080021930  0.2666696648335079  0.0942462434710569   T   T   T
  0.3999589199477118 -0.0000203601383850  0.1416630896021498   T   T   T
  0.4000000059828395  0.2000000029901230  0.0000000000000000   F   F   F
  0.6666612881579239  0.3333360763592211  0.0474028445842509   T   T   T
  0.5333092112353028  0.0666338861232066  0.0942536899336687   T   T   T
  0.3999681449897898  0.1999842980665871  0.1416087639822442   T   T   T
  0.6000000238523029  0.2000000029901230  0.0000000000000000   F   F   F
  0.4667630979810065  0.3333691704234220  0.0473287649628537   T   T   T
  0.7331649071626369  0.0666169916707940  0.0942341432142948   T   T   T
  0.5999946446523322  0.2000135944586039  0.1416550853423341   T   T   T
  0.6000000238758432  0.0000000000000000  0.0000000000000000   F   F   F
  0.4667618089258122  0.1333914977121182  0.0473295514862601   T   T   T
  0.7333264212624430  0.2666733385985989  0.0942462003518972   T   T   T
  0.6000140536861813 -0.0000035292999895  0.1416586886480213   T   T   T
  0.8000000119447250  0.0000000000000000  0.0000000000000000   F   F   F
  0.9333785699318503  0.2668296326219270  0.0942341620925373   T   T   T
  0.8000624457405165  0.0000045779735896  0.1415633905439100   T   T   T
  0.7999999523200216  0.2000000029901230  0.0000000000000000   F   F   F
  0.9332866554855300  0.0667059398288364  0.0941751150760876   T   T   T
  0.8000074471328824  0.1999945796359653  0.1416085893752583   T   T   T
  0.8666069929751147  0.3333601896290062  0.0473298615543919   T   T   T
  0.8666353662226692  0.1333705148538547  0.0473553438738990   T   T   T
  0.0000000000209468  0.4000000059802389  0.0000000000000000   F   F   F
  0.2666708835683338  0.5333374019456798  0.0473883335936098   T   T   T
  0.1334910766916971  0.6666286676327956  0.0943160327452633   T   T   T
  0.0000081268843530  0.3999767778951583  0.1416584096949653   T   T   T
  0.0000000000055138  0.6000000238188363  0.0000000000000000   F   F   F
  0.2666645807955159  0.7333375857433264  0.0473878818747785   T   T   T
  0.1334907874562461  0.4668736887313290  0.0943161088245110   T   T   T
  0.0000158048232458  0.6000246998627002  0.1416588096273465   T   T   T
  0.2000000178749772  0.6000000238188363  0.0000000000000000   F   F   F
  0.0666986294843304  0.7332672359940324  0.0473861340579376   T   T   T
  0.3333821009984452  0.4668719939817056  0.0943143046008663   T   T   T
  0.2000509674973674  0.6000242769081356  0.1417806213042513   T   T   T
  0.2000000029901230  0.4000000059802389  0.0000000000000000   F   F   F
  0.0667447473788722  0.5333738190208592  0.0473830856209465   T   T   T
  0.3333295718715922  0.6666631500604725  0.0943623300080900   T   T   T
  0.1999636022263490  0.3999476158861154  0.1416937344653688   T   T   T
  0.4000000059592921  0.4000000059802389  0.0000000000000000   F   F   F
  0.6666311366591096  0.5332430614714407  0.0473298669813332   T   T   T
  0.5331396206523222  0.6666375501676323  0.0943160150633471   T   T   T
  0.3999620017194884  0.3999797454841946  0.1416590590082635   T   T   T
  0.4000000357444407  0.6000000238188363  0.0000000000000000   F   F   F
  0.6665744763358540  0.7332738094600916  0.0473857668296944   T   T   T
  0.5333123150454070  0.4666815519608629  0.0942543492405993   T   T   T
  0.3999818408755323  0.6000221303508843  0.1417789173054025   T   T   T
  0.6000000238133225  0.6000000238188363  0.0000000000000000   F   F   F
  0.4666778005387610  0.7333410655938087  0.0473882947620954   T   T   T
  0.7333274655947434  0.4666692158829204  0.0942466027643347   T   T   T
  0.6000017620450980  0.6000274830218919  0.1416570451672858   T   T   T
  0.6000000238287555  0.4000000059802389  0.0000000000000000   F   F   F
  0.4666341053585300  0.5333827660057333  0.0473835700338335   T   T   T
  0.7331716963314842  0.6665549066683849  0.0942349775807310   T   T   T
  0.6000029680790846  0.3999920275668887  0.1416555766164561   T   T   T
  0.8000000118976374  0.4000000059802389  0.0000000000000000   F   F   F
  0.9333805351677341  0.6665552322009074  0.0942353092574307   T   T   T
  0.7999822216095323  0.3999965879867792  0.1416527158809836   T   T   T
  0.8000000118822044  0.6000000238188363  0.0000000000000000   F   F   F
  0.9333633685172282  0.4666853151418045  0.0942520358011511   T   T   T
  0.8000089321033974  0.6000233008465692  0.1416080398111032   T   T   T
  0.8666317203557061  0.7332649456231483  0.0473548460706649   T   T   T
  0.8666015555923707  0.5332447529126151  0.0473298283158220   T   T   T
  0.0000000000419007  0.8000000119604849  0.0000000000000000   F   F   F
  0.2667375187428168  0.9333018231554600  0.0473857133161419   T   T   T
 -0.0000008613575708  0.8000664000071868  0.1415640244402487   T   T   T
  0.1334171165734941  0.8665825186510964  0.0942422738509122   T   T   T
  0.3333822175112810  0.8665071397867649  0.0943177026894153   T   T   T
  0.2000000030110698  0.8000000119604849  0.0000000000000000   F   F   F
  0.0667317921448179  0.9332754770008148  0.0473390187581278   T   T   T
  0.1999606169315106  0.8000274866982590  0.1416978937438289   T   T   T
  0.4000000059802389  0.8000000119604849  0.0000000000000000   F   F   F
  0.6665763624877208  0.9333087943059493  0.0473861932849355   T   T   T
  0.3999777247112653  0.7999573570744054  0.1417832744629660   T   T   T
  0.5331282364970095  0.8665145659220954  0.0943158078545147   T   T   T
  0.7331684285485842  0.8665881266272243  0.0942423762564010   T   T   T
  0.6000000238497023  0.8000000119604849  0.0000000000000000   F   F   F
  0.4666268432235917  0.9332494689868347  0.0473831392299940   T   T   T
  0.6000626863733715  0.8000479348404985  0.1416967688035952   T   T   T
  0.8000000119185842  0.8000000119604849  0.0000000000000000   F   F   F
  0.8000591101724406  0.8000558920275623  0.1415657911886540   T   T   T
  0.9332873250629540  0.8665807686494477  0.0941765784643325   T   T   T
  0.8665581476444337  0.9332799126271045  0.0473384890921197   T   T   T
 
  0.00000000E+00  0.00000000E+00  0.00000000E+00
  0.00000000E+00  0.00000000E+00  0.00000000E+00
  0.00000000E+00  0.00000000E+00  0.00000000E+00
  0.00000000E+00  0.00000000E+00  0.00000000E+00
  0.00000000E+00  0.00000000E+00  0.00000000E+00
  0.00000000E+00  0.00000000E+00  0.00000000E+00
  0.00000000E+00  0.00000000E+00  0.00000000E+00
  0.00000000E+00  0.00000000E+00  0.00000000E+00
  0.00000000E+00  0.00000000E+00  0.00000000E+00
  0.00000000E+00  0.00000000E+00  0.00000000E+00
  0.00000000E+00  0.00000000E+00  0.00000000E+00
  0.00000000E+00  0.00000000E+00  0.00000000E+00
  0.00000000E+00  0.00000000E+00  0.00000000E+00
  0.00000000E+00  0.00000000E+00  0.00000000E+00
  0.00000000E+00  0.00000000E+00  0.00000000E+00
  0.00000000E+00  0.00000000E+00  0.00000000E+00
  0.00000000E+00  0.00000000E+00  0.00000000E+00
  0.00000000E+00  0.00000000E+00  0.00000000E+00
  0.00000000E+00  0.00000000E+00  0.00000000E+00
  0.00000000E+00  0.00000000E+00  0.00000000E+00
  0.00000000E+00  0.00000000E+00  0.00000000E+00
  0.00000000E+00  0.00000000E+00  0.00000000E+00
  0.00000000E+00  0.00000000E+00  0.00000000E+00
  0.00000000E+00  0.00000000E+00  0.00000000E+00
  0.00000000E+00  0.00000000E+00  0.00000000E+00
  0.00000000E+00  0.00000000E+00  0.00000000E+00
  0.00000000E+00  0.00000000E+00  0.00000000E+00
  0.00000000E+00  0.00000000E+00  0.00000000E+00
  0.00000000E+00  0.00000000E+00  0.00000000E+00
  0.00000000E+00  0.00000000E+00  0.00000000E+00
  0.00000000E+00  0.00000000E+00  0.00000000E+00
  0.00000000E+00  0.00000000E+00  0.00000000E+00
  0.00000000E+00  0.00000000E+00  0.00000000E+00
  0.00000000E+00  0.00000000E+00  0.00000000E+00
  0.00000000E+00  0.00000000E+00  0.00000000E+00
  0.00000000E+00  0.00000000E+00  0.00000000E+00
  0.00000000E+00  0.00000000E+00  0.00000000E+00
  0.00000000E+00  0.00000000E+00  0.00000000E+00
  0.00000000E+00  0.00000000E+00  0.00000000E+00
  0.00000000E+00  0.00000000E+00  0.00000000E+00
  0.00000000E+00  0.00000000E+00  0.00000000E+00
  0.00000000E+00  0.00000000E+00  0.00000000E+00
  0.00000000E+00  0.00000000E+00  0.00000000E+00
  0.00000000E+00  0.00000000E+00  0.00000000E+00
  0.00000000E+00  0.00000000E+00  0.00000000E+00
  0.00000000E+00  0.00000000E+00  0.00000000E+00
  0.00000000E+00  0.00000000E+00  0.00000000E+00
  0.00000000E+00  0.00000000E+00  0.00000000E+00
  0.00000000E+00  0.00000000E+00  0.00000000E+00
  0.00000000E+00  0.00000000E+00  0.00000000E+00
  0.00000000E+00  0.00000000E+00  0.00000000E+00
  0.00000000E+00  0.00000000E+00  0.00000000E+00
  0.00000000E+00  0.00000000E+00  0.00000000E+00
  0.00000000E+00  0.00000000E+00  0.00000000E+00
  0.00000000E+00  0.00000000E+00  0.00000000E+00
  0.00000000E+00  0.00000000E+00  0.00000000E+00
  0.00000000E+00  0.00000000E+00  0.00000000E+00
  0.00000000E+00  0.00000000E+00  0.00000000E+00
  0.00000000E+00  0.00000000E+00  0.00000000E+00
  0.00000000E+00  0.00000000E+00  0.00000000E+00
  0.00000000E+00  0.00000000E+00  0.00000000E+00
  0.00000000E+00  0.00000000E+00  0.00000000E+00
  0.00000000E+00  0.00000000E+00  0.00000000E+00
  0.00000000E+00  0.00000000E+00  0.00000000E+00
  0.00000000E+00  0.00000000E+00  0.00000000E+00
  0.00000000E+00  0.00000000E+00  0.00000000E+00
  0.00000000E+00  0.00000000E+00  0.00000000E+00
  0.00000000E+00  0.00000000E+00  0.00000000E+00
  0.00000000E+00  0.00000000E+00  0.00000000E+00
  0.00000000E+00  0.00000000E+00  0.00000000E+00
  0.00000000E+00  0.00000000E+00  0.00000000E+00
  0.00000000E+00  0.00000000E+00  0.00000000E+00
  0.00000000E+00  0.00000000E+00  0.00000000E+00
  0.00000000E+00  0.00000000E+00  0.00000000E+00
  0.00000000E+00  0.00000000E+00  0.00000000E+00
  0.00000000E+00  0.00000000E+00  0.00000000E+00
  0.00000000E+00  0.00000000E+00  0.00000000E+00
  0.00000000E+00  0.00000000E+00  0.00000000E+00
  0.00000000E+00  0.00000000E+00  0.00000000E+00
  0.00000000E+00  0.00000000E+00  0.00000000E+00
  0.00000000E+00  0.00000000E+00  0.00000000E+00
  0.00000000E+00  0.00000000E+00  0.00000000E+00
  0.00000000E+00  0.00000000E+00  0.00000000E+00
  0.00000000E+00  0.00000000E+00  0.00000000E+00
  0.00000000E+00  0.00000000E+00  0.00000000E+00
  0.00000000E+00  0.00000000E+00  0.00000000E+00
  0.00000000E+00  0.00000000E+00  0.00000000E+00
  0.00000000E+00  0.00000000E+00  0.00000000E+00
  0.00000000E+00  0.00000000E+00  0.00000000E+00
  0.00000000E+00  0.00000000E+00  0.00000000E+00
  0.00000000E+00  0.00000000E+00  0.00000000E+00
  0.00000000E+00  0.00000000E+00  0.00000000E+00
  0.00000000E+00  0.00000000E+00  0.00000000E+00
  0.00000000E+00  0.00000000E+00  0.00000000E+00
  0.00000000E+00  0.00000000E+00  0.00000000E+00
  0.00000000E+00  0.00000000E+00  0.00000000E+00
  0.00000000E+00  0.00000000E+00  0.00000000E+00
  0.00000000E+00  0.00000000E+00  0.00000000E+00
  0.00000000E+00  0.00000000E+00  0.00000000E+00
  0.00000000E+00  0.00000000E+00  0.00000000E+00
