POSCAR_ini
1.0
       14.6976995468         0.0000000000         0.0000000000
       -7.3488497734        12.7285811847         0.0000000000
        0.0000000000         0.0000000000        49.2004013062
    H    O
    2    1
Cartesian
     8.835301845         7.357756575         9.761359899
     8.799365788         5.819507200         9.759391410
     8.898134424         6.586022399        10.350288628
