POSCAR_ini
1.0
       14.6976995468         0.0000000000         0.0000000000
       -7.3488497734        12.7285811847         0.0000000000
        0.0000000000         0.0000000000        49.2004013062
    H    O
    2    1
Cartesian
     9.095377343         7.341336408         9.971937663
     8.988671902         5.806524245         9.966525600
     8.448972481         6.615298441         9.933069347
