water_molecule                             
   1.00000000000000     
    14.6976995467999991    0.0000000000000000    0.0000000000000000
    -7.3488497733999996   12.7285811846999994    0.0000000000000000
     0.0000000000000000    0.0000000000000000   49.2004013061999999
   H    O 
     2     1
Selective dynamics
Direct
  0.8928030162342169  0.5604380333404178  0.2124576047465127   T   T   T
  0.8323649278937910  0.4395619856595803  0.2124576047465127   T   T   T
  0.8300820578719932  0.5000000100000008  0.2196847705069771   T   T   T
