au_111_4_layers_5x5_with_h2o_6_bilayers_
   1.00000000000000     
    14.6976995467999991    0.0000000000000000    0.0000000000000000
    -7.3488497733999996   12.7285811846999994    0.0000000000000000
     0.0000000000000000    0.0000000000000000   49.2004013061999999
   Au   H    O 
   100   288   144
Selective dynamics
Direct
  0.0000000000000000  0.0000000000000000  0.0000000000000000   F   F   F
  0.2665512326637269  0.1334450056058095  0.0475090434301850   T   T   T
  0.1337358016532058  0.2665268153846749  0.0943827756194869   T   T   T
 -0.0000058998493754 -0.0000027747369306  0.1430388706908644   T   T   T
  0.9999999999764526  0.2000000029901230  0.0000000000000000   F   F   F
  0.2671027050041164  0.3335465562409687  0.0474358510039469   T   T   T
  0.1327633026524507  0.0666096831414067  0.0944944570913087   T   T   T
  0.0003682857387315  0.2000234709386839  0.1419210187585048   T   T   T
  0.2000000030136633  0.2000000029901230  0.0000000000000000   F   F   F
  0.0668173047613961  0.3333532701065046  0.0475495820918499   T   T   T
  0.3331675158197985  0.0669708375500818  0.0943450508712931   T   T   T
  0.1994283337798302  0.1991382682792756  0.1426560904594233   T   T   T
  0.2000000029691691  0.0000000000000000  0.0000000000000000   F   F   F
  0.0665372708975761  0.1334700513096616  0.0474526621183852   T   T   T
  0.3328898731643430  0.2667752561722900  0.0945479356306060   T   T   T
  0.1996558497068263  0.9996755274321862  0.1419239687207013   T   T   T
  0.4000000059383453  0.0000000000000000  0.0000000000000000   F   F   F
  0.6665513179459531  0.1332469726841825  0.0475498970221882   T   T   T
  0.5327609649277800  0.2663987698730482  0.0944614660619811   T   T   T
  0.3988964303461768 -0.0000030949399746  0.1423278349104178   T   T   T
  0.4000000059828395  0.2000000029901230  0.0000000000000000   F   F   F
  0.6666782062304972  0.3333179577628226  0.0476570367606976   T   T   T
  0.5324158372541141  0.0666506665050533  0.0943264731838809   T   T   T
  0.3990594867691715  0.2002449547208346  0.1423789568351239   T   T   T
  0.6000000238523029  0.2000000029901230  0.0000000000000000   F   F   F
  0.4667022590777513  0.3334418998753072  0.0475502407408939   T   T   T
  0.7332475275391594  0.0661381099622660  0.0945494358978350   T   T   T
  0.6005239353429505  0.2002621045041033  0.1420421413912982   T   T   T
  0.6000000238758432  0.0000000000000000  0.0000000000000000   F   F   F
  0.4667694223247394  0.1336834684573646  0.0473453752523153   T   T   T
  0.7336240984257247  0.2663684861584178  0.0944591006972592   T   T   T
  0.5986727393027943  0.0001993054386060  0.1419185934469391   T   T   T
  0.8000000119447250  0.0000000000000000  0.0000000000000000   F   F   F
  0.9330651855923893  0.2662258232318629  0.0943446906271453   T   T   T
  0.8008735299224273  0.0003237578918325  0.1426579707245076   T   T   T
  0.7999999523200216  0.2000000029901230  0.0000000000000000   F   F   F
  0.9334132473995995  0.0661776911152879  0.0944941992542997   T   T   T
  0.7997801130942952  0.1988479485514058  0.1423893008542917   T   T   T
  0.8663167813108438  0.3330920478130267  0.0473420016364317   T   T   T
  0.8665511079124888  0.1331048755761513  0.0475104172503697   T   T   T
  0.0000000000209468  0.4000000059802389  0.0000000000000000   F   F   F
  0.2664214332997350  0.5332248429329079  0.0474534783280787   T   T   T
  0.1334592013738120  0.6666423666257356  0.0943336969031441   T   T   T
  0.0000162268714452  0.3989413631225830  0.1423187828558978   T   T   T
  0.0000000000055138  0.6000000238188363  0.0000000000000000   F   F   F
  0.2667867422046808  0.7335752178907313  0.0474513826338558   T   T   T
  0.1335201615123033  0.4663699292459432  0.0946344115217375   T   T   T
  0.9998127962803764  0.5984740850797322  0.1419201592394183   T   T   T
  0.2000000178749772  0.6000000238188363  0.0000000000000000   F   F   F
  0.0664481804399630  0.7329145444073423  0.0474390010282211   T   T   T
  0.3333847387829125  0.4668685037600719  0.0943306089949386   T   T   T
  0.2003163121782782  0.6006633699940944  0.1421296681301820   T   T   T
  0.2000000029901230  0.4000000059802389  0.0000000000000000   F   F   F
  0.0667539345646311  0.5330322942073157  0.0474942354812244   T   T   T
  0.3333497237738499  0.6667197778468512  0.0943433844730707   T   T   T
  0.2007144904853421  0.3990081980005806  0.1423840743804181   T   T   T
  0.4000000059592921  0.4000000059802389  0.0000000000000000   F   F   F
  0.6669132198228208  0.5332274812689365  0.0473413831394796   T   T   T
  0.5336748928859981  0.6671967908177472  0.0946293130064789   T   T   T
  0.4015280244024115  0.4013445186587583  0.1419156553775960   T   T   T
  0.4000000357444407  0.6000000238188363  0.0000000000000000   F   F   F
  0.6666639350629926  0.7334655164304916  0.0475513641794311   T   T   T
  0.5342431781512993  0.4676111822160311  0.0943242940159927   T   T   T
  0.3993994627088717  0.5996669276766026  0.1421263833954827   T   T   T
  0.6000000238133225  0.6000000238188363  0.0000000000000000   F   F   F
  0.4667825787142452  0.7332106164175484  0.0474516069748972   T   T   T
  0.7336450678026594  0.4672626559665995  0.0944511328521530   T   T   T
  0.6011051638699947  0.6011195170097630  0.1423284431297630   T   T   T
  0.6000000238287555  0.4000000059802389  0.0000000000000000   F   F   F
  0.4669720491727897  0.5337314607224128  0.0474952348781576   T   T   T
  0.7338270949731104  0.6668673935659709  0.0943460167751938   T   T   T
  0.5997426521342483  0.3995149209323732  0.1420354580237517   T   T   T
  0.8000000118976374  0.4000000059802389  0.0000000000000000   F   F   F
  0.9338871937567320  0.6671237409671633  0.0945518856270610   T   T   T
  0.7997332479558947  0.4002735244322495  0.1420398444523476   T   T   T
  0.8000000118822044  0.6000000238188363  0.0000000000000000   F   F   F
  0.9333443151785643  0.4657765191860682  0.0943209926188524   T   T   T
  0.8011699002935324  0.6009438877307176  0.1423842635130556   T   T   T
  0.8669113520852593  0.7334627824667623  0.0475059966483406   T   T   T
  0.8667544132314412  0.5333243807489785  0.0475433212859258   T   T   T
  0.0000000000419007  0.8000000119604849  0.0000000000000000   F   F   F
  0.2665314545003966  0.9331917571826096  0.0475507323414522   T   T   T
  0.9996979880802270  0.8005730732006442  0.1426637726262434   T   T   T
  0.1327822789277696  0.8663130036704636  0.0943844852691155   T   T   T
  0.3328297001188532  0.8665139221421767  0.0946326868274164   T   T   T
  0.2000000030110698  0.8000000119604849  0.0000000000000000   F   F   F
  0.0669332689041197  0.9334825656507466  0.0474552897267945   T   T   T
  0.1982656297293274  0.7992875772686776  0.1423821775943961   T   T   T
  0.4000000059802389  0.8000000119604849  0.0000000000000000   F   F   F
  0.6664766057904333  0.9335560617881102  0.0474356557208075   T   T   T
  0.4003623537699165  0.7997528333963675  0.1421302452171792   T   T   T
  0.5331788955893614  0.8665645318479935  0.0943354340567442   T   T   T
  0.7335045503339024  0.8672326060813045  0.0943880697567876   T   T   T
  0.6000000238497023  0.8000000119604849  0.0000000000000000   F   F   F
  0.4662759898076225  0.9332369822093084  0.0474982347114916   T   T   T
  0.6010045280849161  0.8017196668214700  0.1423855547298846   T   T   T
  0.8000000119185842  0.8000000119604849  0.0000000000000000   F   F   F
  0.8000213848529998  0.8003766126732555  0.1419318689776267   T   T   T
  0.9338380059978489  0.8672481737536455  0.0944963971486792   T   T   T
  0.8665419572189428  0.9330766062537845  0.0474562437989653   T   T   T
  0.1671607201873600  0.0633175168440825  0.2955216825051819   T   T   T
  0.1668017795450574  0.0633289347882786  0.4472704072292739   T   T   T
  0.1664475369564909  0.0631584736974002  0.5995304746448795   T   T   T
  0.3970932585578758  0.3339303446217921  0.2949433334095837   T   T   T
  0.3968484308802092  0.3336325433000312  0.4470389207551698   T   T   T
  0.3968057617791891  0.3332834164148248  0.5993424442193969   T   T   T
  0.1036189015749084  0.1668470321452798  0.2198904115499869   T   T   T
  0.1034575052473571  0.1666849946519307  0.3713041098515229   T   T   T
  0.1034073925486739  0.1666034841907922  0.5233095831354918   T   T   T
  0.0630924274580569  0.3949878801384342  0.2185057590203341   T   T   T
  0.0632364415650178  0.3967916386620206  0.3710239499307589   T   T   T
  0.0631460400199569  0.3966332688861026  0.5230859800840377   T   T   T
  0.1668621948908079  0.1036908528466664  0.2198882001916324   T   T   T
  0.1666868632622660  0.1034507132387557  0.3713035692775219   T   T   T
  0.1666165871398868  0.1033860303963411  0.5233088491873646   T   T   T
  0.3949949041541601  0.0630193936466976  0.2185131209906985   T   T   T
  0.3967724586463525  0.0632143853067492  0.3710174601554128   T   T   T
  0.3966727338429561  0.0631690649821377  0.5230732856269027   T   T   T
  0.0632975351599237  0.1671676668886839  0.2955222207506155   T   T   T
  0.0633387770412248  0.1667956696011484  0.4472692744483451   T   T   T
  0.0632120687147534  0.1664080117045044  0.5995286056435979   T   T   T
  0.3339251156572896  0.3971056195754781  0.2949551061312037   T   T   T
  0.3336339902506125  0.3968438446557189  0.4470503196977496   T   T   T
  0.3333344055958348  0.3967463639663174  0.5993583557640797   T   T   T
  0.1677245547577015  0.9996517721611865  0.1876725452124165   T   T   T
  0.1704786928956760  0.9999741250412078  0.3382894623501205   T   T   T
  0.1701919863167787 -0.0000236383616752  0.4902203156698377   T   T   T
  0.2336732185210603  0.9997991245045101  0.2141143306707890   T   T   T
  0.2333494234969809  0.9999848264812935  0.3655992581982282   T   T   T
  0.2332082442217059  0.9999474108075429  0.5175173666082142   T   T   T
  0.3253724993129078  0.3256159529960292  0.1867827563997461   T   T   T
  0.3299647381672841  0.3299788966415432  0.3380910033745555   T   T   T
  0.3296888866100376  0.3296691298702986  0.4900668201498019   T   T   T
  0.2639155278450125  0.2640094987083050  0.2141159807160682   T   T   T
  0.2667750492263978  0.2667845836042835  0.3654183929271216   T   T   T
  0.2667679367157985  0.2667422006567541  0.5174350347301148   T   T   T
  0.9996179911544365  0.1676954887413763  0.1876663227477321   T   T   T
  0.9999703723964141  0.1704850957978424  0.3382910623404893   T   T   T
 -0.0000070097375006  0.1701742075249055  0.4902199392479217   T   T   T
  0.9997375754191250  0.2336364711662147  0.2141060712771714   T   T   T
 -0.0000004291450553  0.2333647095163008  0.3656010742893311   T   T   T
  0.9999431954041298  0.2331773412953146  0.5175170145443676   T   T   T
  0.3297569295691157  0.0000010895292723  0.2618734549464249   T   T   T
  0.3298387918639554  0.0001093254897465  0.4140826780163785   T   T   T
  0.3299794912832155  0.9998710736860867  0.5659916664708248   T   T   T
  0.2670761246823765  0.0000730109750161  0.2892977308731043   T   T   T
  0.2668242628704575  0.0001216696479510  0.4414322346610724   T   T   T
  0.2665357420475974  0.9997575782757867  0.5935837005939195   T   T   T
  0.1700098156360230  0.1700333022497277  0.2626927343159770   T   T   T
  0.1702849323057548  0.1702767326504015  0.4142441372770325   T   T   T
  0.1696596177348121  0.1696206809345885  0.5661785677169392   T   T   T
  0.2334125567256843  0.2334235497853166  0.2898772325436747   T   T   T
  0.2334259461729687  0.2334171315001431  0.4415217772507914   T   T   T
  0.2330512435816187  0.2329959691559460  0.5937102005096232   T   T   T
  0.0000283410811623  0.3297597784926229  0.2618676194523661   T   T   T
  0.0001471862954448  0.3298598576744463  0.4140841030243332   T   T   T
  0.9998603673792108  0.3299206183911135  0.5659909254200939   T   T   T
  0.0000427078576444  0.2670631695290597  0.2892941710110145   T   T   T
  0.0001531986042337  0.2668377606055389  0.4414325945893747   T   T   T
  0.9997870975543452  0.2664905973456414  0.5935801825529933   T   T   T
  0.6662446628143319  0.0633120454247410  0.2949593744045169   T   T   T
  0.6666191241961453  0.0633467239284916  0.4470568049878979   T   T   T
  0.6662634718713127  0.0631641802570346  0.5993625882965183   T   T   T
  0.8965087240361997  0.3334592500253887  0.2948279962952096   T   T   T
  0.8966790937140606  0.3334252433680590  0.4470007115157087   T   T   T
  0.8967715478843487  0.3332996453512930  0.5992310063689882   T   T   T
  0.4370242588257259  0.1036953969773816  0.2948216552344957   T   T   T
  0.4369081189497253  0.1036584713089505  0.4469907668534676   T   T   T
  0.4363794041685432  0.1028646806919531  0.5992318825914261   T   T   T
  0.6030709247230884  0.1665314393431268  0.2182045906827420   T   T   T
  0.6033950231807925  0.1667546591847247  0.3709098052738140   T   T   T
  0.6032846412564574  0.1665689154859656  0.5230079447223915   T   T   T
  0.5631847796269296  0.3966070223115816  0.2181964857122901   T   T   T
  0.5633413723321992  0.3965855791616016  0.3708965633999231   T   T   T
  0.5632476553340962  0.3965677402355113  0.5230014080268204   T   T   T
  0.4366570697695793  0.3329476310997455  0.2184166712093915   T   T   T
  0.4368900244021831  0.3333796594816186  0.3710198333354722   T   T   T
  0.4367857574629703  0.3333345900498244  0.5230646953823389   T   T   T
  0.6666488574544837  0.1035963759226943  0.2184101855565119   T   T   T
  0.6665771086224876  0.1034887522671704  0.3710337431961588   T   T   T
  0.6665063578978214  0.1033294345582051  0.5230643621186796   T   T   T
  0.8956869931851444  0.0630118032207763  0.2199112934786117   T   T   T
  0.8964739644865002  0.0632148450284627  0.3713114523573824   T   T   T
  0.8964750610900823  0.0631392435507114  0.5233099238200092   T   T   T
  0.5633918378020967  0.1669799319525836  0.2947563634420101   T   T   T
  0.5633978280558996  0.1668983200269782  0.4469385843396823   T   T   T
  0.5634097176151244  0.1663399932037880  0.5991902468567296   T   T   T
  0.8332554103016278  0.3965730846579811  0.2947639020306647   T   T   T
  0.8334441370512770  0.3966823992254665  0.4469336667094964   T   T   T
  0.8332473648673844  0.3968064850935707  0.5991892483762178   T   T   T
  0.6738905394033048  0.9995494364138662  0.1867982796584660   T   T   T
  0.6700461356186931  0.0000273179842972  0.3381123126711106   T   T   T
  0.6702869755224066  0.9999707543227747  0.4900826599507163   T   T   T
  0.7354636255423721  0.9997338946176589  0.2141466406422551   T   T   T
  0.7331918942800927 -0.0000222696089117  0.3654440419559742   T   T   T
  0.7331498710057621  0.9999367281036644  0.5174527273787609   T   T   T
  0.8293684887044435  0.3271683134653885  0.1861131309089429   T   T   T
  0.8297393333418132  0.3297027550611089  0.3378128673497731   T   T   T
  0.8296655732258602  0.3296761024061400  0.4899010050596009   T   T   T
  0.7645694861993700  0.2642910826756698  0.2129407139363174   T   T   T
  0.7667601637592759  0.2667468278842144  0.3651466379369531   T   T   T
  0.7667217327821993  0.2667297478747714  0.5172421364801227   T   T   T
  0.4975839479390102  0.1703978775359379  0.1861188614864466   T   T   T
  0.5000030354532787  0.1703266427969906  0.3378111276667265   T   T   T
  0.5000185971908969  0.1703394807217091  0.4899070031294060   T   T   T
  0.4995080467272991  0.2351491887266209  0.2129573489109259   T   T   T
  0.5000081264151275  0.2332712732197783  0.3651480958432077   T   T   T
  0.4999793844802660  0.2331823504176089  0.5172592873360313   T   T   T
  0.8298445821520983  0.9999610353389135  0.2627198796325468   T   T   T
  0.8298452364154565  0.0000633457129214  0.4142657134869261   T   T   T
  0.8299516440063117  0.9998419873842997  0.5661734656841638   T   T   T
  0.7666526267390443  0.0000674202051887  0.2899253911715287   T   T   T
  0.7667632543055443  0.0001026362424125  0.4415500293194982   T   T   T
  0.7664508196957129  0.9997308648675994  0.5937089371799806   T   T   T
  0.6699015145715099  0.1701640296055232  0.2615890339663096   T   T   T
  0.6702409335184681  0.1703611156817156  0.4139213733484344   T   T   T
  0.6696786070177433  0.1695596329668102  0.5658813752793138   T   T   T
  0.7332649767550803  0.2333308883975998  0.2888778580172752   T   T   T
  0.7333347749585833  0.2333514995670090  0.4412359913775838   T   T   T
  0.7331108924269287  0.2330137330317398  0.5934216725937672   T   T   T
  0.5002077927450579  0.3301342445364865  0.2615931708757962   T   T   T
  0.5001865932044027  0.3299279064703928  0.4139095216304034   T   T   T
  0.4998444645872896  0.3300170107558514  0.5658792098546642   T   T   T
  0.5000810574275448  0.2668744501746537  0.2888926926555163   T   T   T
  0.5001361498564338  0.2669249064057758  0.4412367490557210   T   T   T
  0.4998128371198394  0.2664627097890329  0.5934116039163387   T   T   T
  0.1669151290466183  0.5633609239091630  0.2947929059164539   T   T   T
  0.1669058935588871  0.5634051472222864  0.4469713349021121   T   T   T
  0.1663588756577266  0.5633681108146436  0.5992097641764982   T   T   T
  0.3965485717493102  0.8332717753672144  0.2947957584880778   T   T   T
  0.3966913067001656  0.8334417345578106  0.4469618410158311   T   T   T
  0.3968375695701437  0.8332104603257426  0.5992190150383729   T   T   T
  0.3329843836390696  0.4367856266563492  0.2184611524185899   T   T   T
  0.3333780079594182  0.4369071193718012  0.3710376608511347   T   T   T
  0.3333685923080886  0.4367525301805557  0.5230847890594237   T   T   T
  0.1034853267662309  0.6665669073631785  0.2184705282456559   T   T   T
  0.1034868262021407  0.6665787653369432  0.3710535866173815   T   T   T
  0.1033226390295554  0.6664824032700867  0.5230855980525159   T   T   T
  0.0630541606510796  0.8957911916456048  0.2199227713078881   T   T   T
  0.0631967567463785  0.8964739986691922  0.3713102168593575   T   T   T
  0.0631611143751173  0.8964562634831982  0.5233119029640327   T   T   T
  0.1664273637999725  0.6029864621953868  0.2182720146106065   T   T   T
  0.1667468813035053  0.6033974855741261  0.3709346883699718   T   T   T
  0.1665653879982691  0.6032682407743547  0.5230435958524106   T   T   T
  0.3966303052964157  0.5633230665112875  0.2182429245001988   T   T   T
  0.3965847570270822  0.5633523312328913  0.3709191996238083   T   T   T
  0.3965922735668911  0.5632100917108139  0.5230348509672994   T   T   T
  0.0632437859432662  0.6662282137403446  0.2949829379882691   T   T   T
  0.0633561047757229  0.6666184029997982  0.4470697717797898   T   T   T
  0.0631649035918247  0.6662035716046010  0.5993812969884867   T   T   T
  0.3334317538883920  0.8965258587284708  0.2948476190740336   T   T   T
  0.3334319376944747  0.8966722018548215  0.4470194951557193   T   T   T
  0.3333414432822193  0.8967474194226526  0.5992408305729574   T   T   T
  0.1036521044218992  0.4369863056874035  0.2948332007220908   T   T   T
  0.1036706722125133  0.4369187595021808  0.4470124169221369   T   T   T
  0.1028844084554291  0.4363351702361377  0.5992371245830441   T   T   T
  0.1706778647693443  0.4979123906772751  0.1861458611483187   T   T   T
  0.1703433972461127  0.4999962469122901  0.3378291245218096   T   T   T
  0.1703600782892891  0.5000093417357654  0.4899416034160748   T   T   T
  0.2352150892401302  0.4996060543495576  0.2130023439734435   T   T   T
  0.2332941839134261  0.5000309884205576  0.3651694839729004   T   T   T
  0.2331945442306971  0.4999459655454500  0.5172927555053920   T   T   T
  0.3269288191129734  0.8289466685883798  0.1861480031600016   T   T   T
  0.3296644095566018  0.8297083570429955  0.3378329916730593   T   T   T
  0.3296918147126435  0.8296585222401587  0.4899331774270511   T   T   T
  0.2640933369467157  0.7644088836955374  0.2130051315292032   T   T   T
  0.2667270224999539  0.7667360357919472  0.3651706825193116   T   T   T
  0.2667397623400575  0.7667174037427040  0.5172737611791398   T   T   T
  0.9999351567729474  0.6741720533561696  0.1867941076412719   T   T   T
  0.9999978150434257  0.6700476710642108  0.3381154386435528   T   T   T
  0.9999759864471602  0.6702743976394354  0.4900818035173667   T   T   T
  0.9998261394933807  0.7355847420734537  0.2141451650754030   T   T   T
  0.9999796488991570  0.7332045466941705  0.3654478011139866   T   T   T
  0.9999424374670386  0.7331328603935032  0.5174537540479921   T   T   T
  0.3301487006287419  0.5002658478452253  0.2616337536517095   T   T   T
  0.3299280511716644  0.5002015447054620  0.4139407659453714   T   T   T
  0.3300562911600021  0.4997940268598440  0.5659106219922008   T   T   T
  0.2668439988889435  0.5000852849514699  0.2889303977930626   T   T   T
  0.2669180042709339  0.5001428646894078  0.4412686595605328   T   T   T
  0.2664887349559877  0.4997637089504013  0.5934397016322992   T   T   T
  0.1700619087090601  0.6698420917630196  0.2616520584393772   T   T   T
  0.1703731848762993  0.6702411842693276  0.4139557892626373   T   T   T
  0.1695512394839930  0.6696516380736202  0.5659131908434978   T   T   T
  0.2332828984869655  0.7332645672809145  0.2889305364270112   T   T   T
  0.2333753213024463  0.7333463041084145  0.4412687206169713   T   T   T
  0.2330357493982539  0.7330867886356262  0.5934513091547318   T   T   T
  0.9999651941941945  0.8298764797127676  0.2627273888796869   T   T   T
  0.0000553334047991  0.8298380027075535  0.4142666170139622   T   T   T
  0.9998748356810098  0.8299100342157132  0.5661748267056750   T   T   T
  0.0000217287098765  0.7666596866949810  0.2899326348725175   T   T   T
  0.0000991558222809  0.7667547212585447  0.4415506981668790   T   T   T
  0.9997426475669726  0.7663811913316754  0.5937105527657122   T   T   T
  0.6666847415413735  0.5630702277002994  0.2948214175784745   T   T   T
  0.6668405323815675  0.5633089831366846  0.4469969822927325   T   T   T
  0.6663343295481440  0.5632069596373398  0.5992444666539659   T   T   T
  0.8961000221955063  0.8328650761083615  0.2955219562842563   T   T   T
  0.8966212773164026  0.8333865764164323  0.4472770506408429   T   T   T
  0.8966380524561648  0.8331184027831500  0.5995165561895587   T   T   T
  0.4367217733843368  0.6036422172933391  0.2947735750981025   T   T   T
  0.4368239765768449  0.6035853885235096  0.4469481892653502   T   T   T
  0.4362288207402514  0.6027244409754899  0.5992295620657642   T   T   T
  0.8331010024155896  0.4363998479727627  0.2182258659512407   T   T   T
  0.8332172898254314  0.4366286625570564  0.3709124830518191   T   T   T
  0.8332603301017486  0.4366252714368431  0.5230114000942171   T   T   T
  0.6046537959425597  0.6679929834397649  0.2184888392105825   T   T   T
  0.6031786375818875  0.6664030719918878  0.3710237460425829   T   T   T
  0.6031956620747965  0.6663790850396480  0.5230848059601715   T   T   T
  0.5627682163785110  0.8960621539263964  0.2184685440501988   T   T   T
  0.5630648618721746  0.8964621937130546  0.3710399573358139   T   T   T
  0.5631094900509210  0.8964944133522251  0.5230926166870730   T   T   T
  0.4362438488491898  0.8331315802374337  0.2182794036360223   T   T   T
  0.4366203659627751  0.8332171809612750  0.3709378180476285   T   T   T
  0.4366579200326668  0.8332611304937554  0.5230471684490181   T   T   T
  0.6678260057580787  0.6047202006838990  0.2184944185978649   T   T   T
  0.6663876099746084  0.6031988919228959  0.3710195621972051   T   T   T
  0.6664065243946554  0.6031591940205292  0.5230720195115844   T   T   T
  0.8959903143885405  0.5629070952046654  0.2184189734242278   T   T   T
  0.8964636043549906  0.5630778862071404  0.3710243468362530   T   T   T
  0.8964919002980989  0.5630852390631773  0.5230689573850867   T   T   T
  0.5630797172677274  0.6667102030755574  0.2948313813242751   T   T   T
  0.5633021305790207  0.6668422030964462  0.4470165423260699   T   T   T
  0.5632593504476644  0.6662851071217692  0.5992560472419707   T   T   T
  0.8328302572694712  0.8961308687511722  0.2955196721991143   T   T   T
  0.8333946763282074  0.8966256251786310  0.4472775533051432   T   T   T
  0.8331582003939103  0.8965899201444212  0.5995144721140632   T   T   T
  0.6036145762732351  0.4367187936719263  0.2947507426672611   T   T   T
  0.6035911094926472  0.4368281076709506  0.4469162691150796   T   T   T
  0.6027686029800344  0.4361775465958770  0.5992037137845803   T   T   T
  0.6725689873218308  0.5020481699789608  0.1861188223141770   T   T   T
  0.6703235411560498  0.5000188497133381  0.3378116341991833   T   T   T
  0.6703003264783722  0.4999388696266986  0.4898982924579160   T   T   T
  0.7353507958930502  0.5001126499741465  0.2129641563238540   T   T   T
  0.7332441665125311  0.4999833113980358  0.3651508799642416   T   T   T
  0.7331517738244551  0.4999089076241989  0.5172508527798708   T   T   T
  0.8320806114551991  0.8320900729528340  0.1876784612678179   T   T   T
  0.8294774476558039  0.8295039731993538  0.3382799954261445   T   T   T
  0.8297607023357660  0.8297466782318087  0.4902191737721381   T   T   T
  0.7660708796559467  0.7660956216944019  0.2140882425357003   T   T   T
  0.7666236598134213  0.7666411637178346  0.3655879926926203   T   T   T
  0.7667004278285511  0.7666715722666037  0.5175114077200257   T   T   T
  0.5017211511478029  0.6727269348942555  0.1861417067954140   T   T   T
  0.5000060348185709  0.6703586421477165  0.3378250593735582   T   T   T
  0.4999564641789084  0.6702971490388540  0.4899317700194336   T   T   T
  0.4999961047681066  0.7354900415677871  0.2130113539330845   T   T   T
  0.4999646266777862  0.7332616653715114  0.3651692916222521   T   T   T
  0.4999382143333039  0.7331454267788358  0.5172859346312650   T   T   T
  0.8298926315309115  0.4997889671834699  0.2616087017916656   T   T   T
  0.8298327955693068  0.4999694097278147  0.4139196532259937   T   T   T
  0.8300189988259055  0.4998635186333794  0.5658805110864393   T   T   T
  0.7668394154465270  0.5000345365845088  0.2889099500089661   T   T   T
  0.7669042027496450  0.5000783786947909  0.4412440526116867   T   T   T
  0.7664407788417521  0.4997456190988800  0.5934204439906197   T   T   T
  0.6701391444703412  0.6701974412226410  0.2618413572420267   T   T   T
  0.6702664584360051  0.6702891450202964  0.4140745053688497   T   T   T
  0.6697270927205904  0.6696804405651648  0.5659943422595681   T   T   T
  0.7329116240721043  0.7329355944255930  0.2892602562678749   T   T   T
  0.7333364519400721  0.7333490525189796  0.4414159873412348   T   T   T
  0.7330755149232311  0.7330300340541805  0.5935861798326189   T   T   T
  0.4997313895299170  0.8299582321791656  0.2616556649398729   T   T   T
  0.4999573933650351  0.8298137824693080  0.4139494076727893   T   T   T
  0.4999120980469801  0.8300074930564910  0.5659193311811490   T   T   T
  0.5000401486961467  0.7668802939409295  0.2889460816478826   T   T   T
  0.5000662180293675  0.7668810254944877  0.4412738276070977   T   T   T
  0.4998051078487915  0.7664116862303832  0.5934538174495728   T   T   T
  0.9367605022269915  0.1038823398227246  0.2955173090849949   T   T   T
  0.9368730662185473  0.1035726407344107  0.4472666903861988   T   T   T
  0.9362660467877373  0.1029395893529648  0.5995240502786435   T   T   T
  0.9366520500530239  0.3318226462946357  0.2185243771819140   T   T   T
  0.9368231202571237  0.3335769953757595  0.3710303997298519   T   T   T
  0.9367104322086608  0.3334182233684163  0.5230759044551374   T   T   T
  0.9368968546971532  0.6030499574807475  0.2949551861223371   T   T   T
  0.9369246205933492  0.6033860430161442  0.4470427034158947   T   T   T
  0.9362285068809398  0.6027131778953494  0.5993603343204879   T   T   T
  0.9366723559505213  0.8326438193525411  0.2199326391920838   T   T   T
  0.9367383580211720  0.8332504181583110  0.3713144942320731   T   T   T
  0.9367329930421786  0.8332412473254972  0.5233152471229733   T   T   T
  0.3317141077337407  0.9365655208507019  0.2185234984028590   T   T   T
  0.3335567885813203  0.9368011043903784  0.3710361961786963   T   T   T
  0.3334580433232568  0.9367342957753134  0.5230890300656051   T   T   T
  0.1038814115185889  0.9367794570133019  0.2955200156044364   T   T   T
  0.1035669632801963  0.9368625107728109  0.4472681601187993   T   T   T
  0.1029861793742091  0.9362120956719799  0.5995273239193170   T   T   T
  0.8325895057973398  0.9366373415908100  0.2199304093739804   T   T   T
  0.8332468447556465  0.9367555002549619  0.3713150496980522   T   T   T
  0.8332502965286742  0.9367114072646543  0.5233136283520178   T   T   T
  0.6030531383166707  0.9369695220972823  0.2949685930915525   T   T   T
  0.6033859697173760  0.9369152068743209  0.4470517514351043   T   T   T
  0.6027782751702305  0.9362308844753694  0.5993767067741317   T   T   T
  0.1669248116080387  0.9997172653425056  0.2078282343861919   T   T   T
  0.1680876970188989  0.9999366158701726  0.3585248907649009   T   T   T
  0.1679599709354210  0.9999111722482714  0.5104503675657177   T   T   T
  0.1688102787146104  0.0000454047043829  0.3027534306220876   T   T   T
  0.1681650898568982  0.0000938284975633  0.4546298746538823   T   T   T
  0.1700957233019249  0.9996900190994105  0.6056302187912476   T   T   T
  0.3295053564936247  0.3296193263556838  0.2068226401865595   T   T   T
  0.3319719674944972  0.3319936763884136  0.3583212950432855   T   T   T
  0.3319094541584849  0.3318869017877962  0.5102962573118808   T   T   T
  0.3329902002047262  0.3329863770525853  0.3025051344001211   T   T   T
  0.3324031293293396  0.3323884466392866  0.4544695542548241   T   T   T
  0.3298559647137705  0.3297869391020977  0.6055371823092438   T   T   T
  0.9996148730139072  0.1668665309835838  0.2078224067945001   T   T   T
  0.9999472807958050  0.1681005586119808  0.3585266456984299   T   T   T
  0.9999302304447811  0.1679377846873414  0.5104496939323103   T   T   T
  0.0000207196487567  0.1688068321644271  0.3027538698302378   T   T   T
  0.0001077062520091  0.1681651177598334  0.4546287246861762   T   T   T
  0.9997391640835713  0.1700494690058025  0.6056262183907338   T   T   T