au_111_4_layers_5x5_with_h2o_6_bilayers_
   1.00000000000000     
    14.6976995467999991    0.0000000000000000    0.0000000000000000
    -7.3488497733999996   12.7285811846999994    0.0000000000000000
     0.0000000000000000    0.0000000000000000   49.2004013061999999
   Au   H    O 
   100    96    48
Selective dynamics
Direct
  0.0000000000000000  0.0000000000000000  0.0000000000000000   F   F   F
  0.2665635318710713  0.1334312597901217  0.0474137069116054   T   T   T
  0.1332338128135433  0.2662400356850583  0.0942222010972813   T   T   T
  0.0000705046935536  0.0001276086212343  0.1427125118225305   T   T   T
  0.9999999999764526  0.2000000029901230  0.0000000000000000   F   F   F
  0.2669716132680620  0.3334706214752217  0.0473340167052640   T   T   T
  0.1327244097431901  0.0665173251393227  0.0943269154227195   T   T   T
  0.9999278481152345  0.1999586779338145  0.1416977752758370   T   T   T
  0.2000000030136633  0.2000000029901230  0.0000000000000000   F   F   F
  0.0667414159236515  0.3334976455321765  0.0474594914068405   T   T   T
  0.3331673522172949  0.0668929507032416  0.0941664595374903   T   T   T
  0.1987371400799702  0.1987922538385973  0.1422865377198548   T   T   T
  0.2000000029691691  0.0000000000000000  0.0000000000000000   F   F   F
  0.0665291963040247  0.1334903897752184  0.0473526378321552   T   T   T
  0.3325449978504693  0.2666424095256161  0.0943762575496905   T   T   T
  0.2000209721456230  0.0001978944059715  0.1417051457524892   T   T   T
  0.4000000059383453  0.0000000000000000  0.0000000000000000   F   F   F
  0.6666456079189658  0.1332817495503420  0.0474639014641127   T   T   T
  0.5325912779376125  0.2661477298372006  0.0943359542956657   T   T   T
  0.3989291986479060  0.0002161433135157  0.1418850634775310   T   T   T
  0.4000000059828395  0.2000000029901230  0.0000000000000000   F   F   F
  0.6666705524863730  0.3333378256699291  0.0476207695101536   T   T   T
  0.5325397006736239  0.0665635614476443  0.0941695319832334   T   T   T
  0.3983722368792755  0.2001773685750692  0.1419704208450057   T   T   T
  0.6000000238523029  0.2000000029901230  0.0000000000000000   F   F   F
  0.4666911905433722  0.3333689763371837  0.0474634906655709   T   T   T
  0.7333528173297594  0.0658373320430954  0.0943758808105954   T   T   T
  0.6012445513500566  0.2003679618917786  0.1415992889758897   T   T   T
  0.6000000238758432  0.0000000000000000  0.0000000000000000   F   F   F
  0.4668749768791329  0.1336636568205734  0.0472747542504948   T   T   T
  0.7338228582534896  0.2664256454047589  0.0943371736448171   T   T   T
  0.5982018269102909  0.9999783533342850  0.1414386910840690   T   T   T
  0.8000000119447250  0.0000000000000000  0.0000000000000000   F   F   F
  0.9330888297037490  0.2662477898115014  0.0941624235335752   T   T   T
  0.8013552507635069  0.0000081982264888  0.1422969374761820   T   T   T
  0.7999999523200216  0.2000000029901230  0.0000000000000000   F   F   F
  0.9335621232672935  0.0662561974691087  0.0943243769614028   T   T   T
  0.7998128269031923  0.1981460376914939  0.1419669573255291   T   T   T
  0.8663006477813795  0.3331906584995750  0.0472756134937242   T   T   T
  0.8665675238894792  0.1331100080630776  0.0474118891465451   T   T   T
  0.0000000000209468  0.4000000059802389  0.0000000000000000   F   F   F
  0.2663168602795096  0.5331495523696148  0.0473526864405969   T   T   T
  0.1336382934010842  0.6671318551994148  0.0941506762435580   T   T   T
  0.9996592061014766  0.3986853892844735  0.1418788881053672   T   T   T
  0.0000000000055138  0.6000000238188363  0.0000000000000000   F   F   F
  0.2668455294887622  0.7336201600695915  0.0473516086755268   T   T   T
  0.1334625538669982  0.4664842792089203  0.0945424419837479   T   T   T
  0.9999894542350063  0.5982123847249596  0.1414312500687132   T   T   T
  0.2000000178749772  0.6000000238188363  0.0000000000000000   F   F   F
  0.0665697815299708  0.7330776274218280  0.0473359249287668   T   T   T
  0.3328778245368014  0.4664891410353178  0.0941554372852451   T   T   T
  0.2004793654357400  0.6015495452685542  0.1416345291946968   T   T   T
  0.2000000029901230  0.4000000059802389  0.0000000000000000   F   F   F
  0.0667528680800942  0.5331262733866495  0.0474276187500280   T   T   T
  0.3333117870199231  0.6665821739275160  0.0941115947390401   T   T   T
  0.2001544617105964  0.3982176183756110  0.1419830717747530   T   T   T
  0.4000000059592921  0.4000000059802389  0.0000000000000000   F   F   F
  0.6668162328034910  0.5331675135321419  0.0472727386805971   T   T   T
  0.5335378445800956  0.6670208946444092  0.0945382335971701   T   T   T
  0.4018696915807070  0.4018178309032336  0.1414468144250662   T   T   T
  0.4000000357444407  0.6000000238188363  0.0000000000000000   F   F   F
  0.6665064088176820  0.7332611595295049  0.0474595658510850   T   T   T
  0.5340636176043390  0.4674606354196911  0.0941671121218661   T   T   T
  0.3985181287152386  0.5989558676364055  0.1416313738633619   T   T   T
  0.6000000238133225  0.6000000238188363  0.0000000000000000   F   F   F
  0.4667987335324426  0.7331263208097241  0.0473526289902608   T   T   T
  0.7335672504123281  0.4674194957950135  0.0943318160029705   T   T   T
  0.6014142909827527  0.6011087332167264  0.1418778243228758   T   T   T
  0.6000000238287555  0.4000000059802389  0.0000000000000000   F   F   F
  0.4668795001265025  0.5336507409359683  0.0474277278339414   T   T   T
  0.7338363174778451  0.6669179233848652  0.0941618699129378   T   T   T
  0.5991390426396705  0.3987313093981655  0.1415985513654050   T   T   T
  0.8000000118976374  0.4000000059802389  0.0000000000000000   F   F   F
  0.9341699628660294  0.6675805018551770  0.0943755923749734   T   T   T
  0.7995760146522102  0.4008573669948134  0.1415961580150054   T   T   T
  0.8000000118822044  0.6000000238188363  0.0000000000000000   F   F   F
  0.9333719317941203  0.4659994445792108  0.0941642281436899   T   T   T
  0.8018880375403015  0.6017012231598713  0.1419660644293259   T   T   T
  0.8669123500319742  0.7334897153404611  0.0474087407530988   T   T   T
  0.8666972475207970  0.5333937910785096  0.0474584936683726   T   T   T
  0.0000000000419007  0.8000000119604849  0.0000000000000000   F   F   F
  0.2667644268601350  0.9332301450769620  0.0474593308493922   T   T   T
  0.0000532736811039  0.8014435737783216  0.1422956388703369   T   T   T
  0.1330333196242535  0.8668400879432738  0.0942286467465152   T   T   T
  0.3329710434321598  0.8664503884221588  0.0945411775201705   T   T   T
  0.2000000030110698  0.8000000119604849  0.0000000000000000   F   F   F
  0.0669974809675438  0.9334971385955910  0.0473514982791912   T   T   T
  0.1979983254523887  0.7998846713491190  0.1419829564125408   T   T   T
  0.4000000059802389  0.8000000119604849  0.0000000000000000   F   F   F
  0.6665221098297778  0.9334496947294468  0.0473369886806054   T   T   T
  0.4010607968750008  0.7994954601535582  0.1416277090565146   T   T   T
  0.5334785045250001  0.8663299396064374  0.0941475178306064   T   T   T
  0.7338508601699232  0.8670148443520986  0.0942257370534207   T   T   T
  0.6000000238497023  0.8000000119604849  0.0000000000000000   F   F   F
  0.4663377676013454  0.9331933703773956  0.0474229417119361   T   T   T
  0.6019451279659620  0.8020280788868703  0.1419745591326347   T   T   T
  0.8000000119185842  0.8000000119604849  0.0000000000000000   F   F   F
  0.8002065248792007  0.8000646234349560  0.1417073355351732   T   T   T
  0.9338442994978280  0.8674106949190445  0.0943254615795013   T   T   T
  0.8665413899284289  0.9330655319827201  0.0473515853413247   T   T   T
  0.1689178897238364  0.0633443769157083  0.2986708521313446   T   T   T
  0.3983244443731806  0.3351680726580568  0.2947156772126434   T   T   T
  0.1048707501792805  0.1677245560973830  0.2211741798849474   T   T   T
  0.0630643275144536  0.3929243670154960  0.2176361306610559   T   T   T
  0.1677665034935671  0.1048642854088655  0.2211637370479949   T   T   T
  0.3928680058957639  0.0629552123168153  0.2176619523006451   T   T   T
  0.0633877941910512  0.1689229008914097  0.2986680999291025   T   T   T
  0.3352077315217485  0.3983023440910003  0.2947723863310472   T   T   T
  0.1635806415709737  0.9994124438001961  0.1881887986423436   T   T   T
  0.2336300747484188  0.9997288803014115  0.2140416919425476   T   T   T
  0.3147681020390962  0.3153408304034642  0.1861169479661839   T   T   T
  0.2608778027324945  0.2609546203092847  0.2149397005932485   T   T   T
  0.9995835589645310  0.1636794113792419  0.1881851489913657   T   T   T
  0.9998098937845157  0.2336760293634583  0.2140370709009218   T   T   T
  0.3237288163401573  0.0000419880090519  0.2627322314940201   T   T   T
  0.2643271103514238  0.0000885890215656  0.2910657474804239   T   T   T
  0.1718443684804782  0.1717985078919639  0.2659280819296939   T   T   T
  0.2367688083721617  0.2367195587415623  0.2926616865425302   T   T   T
  0.0001794535830157  0.3237627071137155  0.2627172981513013   T   T   T
  0.0001260634949745  0.2643111614416753  0.2910547626032951   T   T   T
  0.6648250660971868  0.0631671072688036  0.2948670929112254   T   T   T
  0.8948039251780457  0.3314069025193120  0.2947535049325083   T   T   T
  0.4367789701207627  0.1056495550922776  0.2947725869445819   T   T   T
  0.6036585210409200  0.1665878470412920  0.2156764190924036   T   T   T
  0.5629350889452311  0.3962214120236069  0.2156023098469930   T   T   T
  0.4359217403979514  0.3314320261899439  0.2161091476610295   T   T   T
  0.6686421821693571  0.1046135241315653  0.2161574612171009   T   T   T
  0.8947640764202234  0.0628191938913361  0.2212577039269448   T   T   T
  0.5633159880736613  0.1686350808936723  0.2940247507319000   T   T   T
  0.8317798946282977  0.3949286511810541  0.2939822069576650   T   T   T
  0.6849688408904697  0.9998799440504342  0.1861075259702361   T   T   T
  0.7390281283940325  0.0000519543216768  0.2149749522176236   T   T   T
  0.8324333676061713  0.3242058879354630  0.1846475052391838   T   T   T
  0.7637154117851850  0.2630778498453097  0.2113766740827643   T   T   T
  0.4914338895440693  0.1672193932889527  0.1846187631602518   T   T   T
  0.4990321626586223  0.2360659631326669  0.2113179268321375   T   T   T
  0.8279101465401837  0.0000206181661895  0.2660224425338100   T   T   T
  0.7631576553276602  0.0000378705856150  0.2927922835513925   T   T   T
  0.6722200819493125  0.1726111375703923  0.2608005031041358   T   T   T
  0.7348545197784304  0.2351272847289039  0.2883940785776602   T   T   T
  0.5004483392555485  0.3278083137868535  0.2606884132093654   T   T   T
  0.5003694405816503  0.2653277864435637  0.2883282600159518   T   T   T
  0.1685504801306053  0.5632276274339389  0.2941257415293066   T   T   T
  0.3948955009567996  0.8317630874636990  0.2940776156853957   T   T   T
  0.3313864563480777  0.4359918890972594  0.2162293486423934   T   T   T
  0.1047583008554938  0.6686678694858017  0.2162770168195678   T   T   T
  0.0627685624037966  0.8947645167115255  0.2212716497613414   T   T   T
  0.1666807081364183  0.6036408444387931  0.2157687654299352   T   T   T
  0.3962116736454178  0.5629925108406582  0.2156995030794207   T   T   T
  0.0631113900672986  0.6647947795207614  0.2949153735423806   T   T   T
  0.3313859653740394  0.8947972410366631  0.2948126593442240   T   T   T
  0.1055726169740723  0.4366863230692246  0.2948139543526764   T   T   T
  0.1677670759589063  0.4919100525825328  0.1846326184024818   T   T   T
  0.2361813597122193  0.4991319094181748  0.2113890767726545   T   T   T
  0.3241185888442075  0.8319256131205748  0.1846667857877833   T   T   T
  0.2630799354891593  0.7636000201659670  0.2114489162521167   T   T   T
  0.0011014186088900  0.6855702726654798  0.1861074143626240   T   T   T
  0.0002466905152261  0.7391261109851115  0.2149734433571098   T   T   T
  0.3278354880644088  0.5005437299019704  0.2608147488884001   T   T   T
  0.2652970447038143  0.5003511051257874  0.2884506428977645   T   T   T
  0.1726605650757733  0.6721328918201550  0.2609104126102224   T   T   T
  0.2351089663079691  0.7348214830456925  0.2885029707893096   T   T   T
  0.9999345336800474  0.8278682330860434  0.2660240315465430   T   T   T
  0.9999540039087194  0.7631273639130711  0.2927958043551513   T   T   T
  0.6686632424676233  0.5632078935132654  0.2947547236604109   T   T   T
  0.8942492444734498  0.8308844854998654  0.2986820310442226   T   T   T
  0.4367471544541814  0.6051925578399349  0.2940560203353257   T   T   T
  0.8336084790610983  0.4374123400108942  0.2156741273427798   T   T   T
  0.6068964054244290  0.6701322884155516  0.2175948898511493   T   T   T
  0.5642940080481438  0.8957261435476269  0.2162199243686302   T   T   T
  0.4373123392186287  0.8335085342993978  0.2157534061473143   T   T   T
  0.6700688089841762  0.6069570622128992  0.2176135546255864   T   T   T
  0.8958840091988165  0.5643997447239997  0.2161143007615820   T   T   T
  0.5632638007177206  0.6686729352610925  0.2947931249223785   T   T   T
  0.8308624829071718  0.8942849448954959  0.2986778506758796   T   T   T
  0.6051723979185795  0.4367094539982261  0.2939601289152876   T   T   T
  0.6761150465023320  0.5083799561902183  0.1846139715101813   T   T   T
  0.7373255969999093  0.5010513498496181  0.2113555042034818   T   T   T
  0.8362607974232219  0.8363410059795200  0.1882060341129090   T   T   T
  0.7662342687858796  0.7662816795326819  0.2140160821430612   T   T   T
  0.5079318349552224  0.6761130463970417  0.1846273226963717   T   T   T
  0.5009191022303270  0.7372970695397356  0.2114137446359976   T   T   T
  0.8275933201684751  0.4999020779931698  0.2607672145825504   T   T   T
  0.7649470840993331  0.4996968644222548  0.2883777464345130   T   T   T
  0.6760446938422930  0.6761050358476766  0.2626694552590649   T   T   T
  0.7355132584239072  0.7355303046161410  0.2909970426041397   T   T   T
  0.4997632115811754  0.8275237594605258  0.2608640587409141   T   T   T
  0.4997042432479475  0.7649457640877202  0.2884718168548659   T   T   T
  0.9366033098121704  0.1055749181405119  0.2986986254764403   T   T   T
  0.9367495675764914  0.3298526711917020  0.2176834801390441   T   T   T
  0.9368613533541890  0.6016846793476134  0.2948536412754947   T   T   T
  0.9370404083563457  0.8318687373106926  0.2212622179723382   T   T   T
  0.3297743517290854  0.9366421635351401  0.2176705592017782   T   T   T
  0.1055531858307859  0.9365647198414493  0.2986965893371121   T   T   T
  0.8319258569721271  0.9370908941583878  0.2212733661550885   T   T   T
  0.6016885237407976  0.9369170512187708  0.2948868825039597   T   T   T
  0.1650925035219970  0.9996814036390873  0.2081774170062758   T   T   T
  0.1733546856096524  0.9999817032329403  0.3041044466853293   T   T   T
  0.3254802357760695  0.3256563001506052  0.2058162585305681   T   T   T
  0.3334909872042360  0.3334156413869565  0.3017393502783960   T   T   T
  0.9997285797061011  0.1651274303893970  0.2081734374485080   T   T   T
  0.0000338865598764  0.1733800219146318  0.3041040161990907   T   T   T
  0.3295187843989567  0.0001952240282037  0.2826140198104028   T   T   T
  0.3275812144829189  0.9997812021797756  0.2245141611655441   T   T   T
  0.1696009518230284  0.1695664041025680  0.2858934466815128   T   T   T
  0.1707599781315778  0.1707318432176095  0.2279442428677285   T   T   T
  0.0002333027859294  0.3295000234906382  0.2825990734337651   T   T   T
  0.9999149262364213  0.3276618764857062  0.2245072629496292   T   T   T
  0.6744710694515632  0.0001343519537826  0.2058008411613486   T   T   T
  0.6665128769524458  0.0000587402065619  0.3018934685873802   T   T   T
  0.8322923054085365  0.3295097109628529  0.2045384074480481   T   T   T
  0.8273707825625110  0.3278968451104376  0.3001376348800164   T   T   T
  0.4968214995020617  0.1674365051968252  0.2045117718525731   T   T   T
  0.5006930052850080  0.1730924953920976  0.3001616503495228   T   T   T
  0.8302767533162694  0.0000230245301651  0.2859866842156649   T   T   T
  0.8288986500207116  0.9999578039016583  0.2280510332287093   T   T   T
  0.6686022677007770  0.1688451919538210  0.2807224717028873   T   T   T
  0.6697536011458141  0.1701781825664526  0.2223734976435026   T   T   T
  0.5002875200467969  0.3315216776624368  0.2806087448171652   T   T   T
  0.5003358869274663  0.3301867631709356  0.2222895116020851   T   T   T
  0.1675961133801280  0.4969168679627600  0.2045283191014420   T   T   T
  0.1729634294198235  0.5005662969702840  0.3002481352195971   T   T   T
  0.3294350287047578  0.8321396775345207  0.2045592200770940   T   T   T
  0.3278675219818936  0.8273863691828751  0.3002249280188636   T   T   T
  0.0005403827772525  0.6746675600797900  0.2058005603824995   T   T   T
  0.9999404789131887  0.6664701093098984  0.3019018035002290   T   T   T
  0.3315360953600006  0.5003421194214468  0.2807352171686475   T   T   T
  0.3301999886049600  0.5004371666970613  0.2224163658453193   T   T   T
  0.1688409674010174  0.6685486106792879  0.2808330219761785   T   T   T
  0.1702887072436852  0.6697080976836247  0.2224970316837442   T   T   T
  0.9999611021752983  0.8302523128460280  0.2859880305627058   T   T   T
  0.9999030851581239  0.8288672500764349  0.2280512835981412   T   T   T
  0.6708033655753312  0.5029780824770995  0.2045050963802026   T   T   T
  0.6721718861893180  0.4992963275754505  0.3001514670763257   T   T   T
  0.8347875343043683  0.8348125454490756  0.2081940437644008   T   T   T
  0.8263817100684392  0.8264154444873029  0.3040542255598808   T   T   T
  0.5028668704890507  0.6708160119362319  0.2045209903199066   T   T   T
  0.4993921236971914  0.6722053541140696  0.3002243706100316   T   T   T
  0.8312935286266949  0.4998840687843185  0.2806885741216405   T   T   T
  0.8302609013938209  0.5000713220186057  0.2223533703838214   T   T   T
  0.6703761047317229  0.6703853238586888  0.2825513282445797   T   T   T
  0.6721930158662488  0.6722697758337688  0.2244463175056737   T   T   T
  0.4998196376193320  0.8312654904715657  0.2807861841102195   T   T   T
  0.4999226152381624  0.8301293357215371  0.2224595429051632   T   T   T
 
  0.00000000E+00  0.00000000E+00  0.00000000E+00
  0.00000000E+00  0.00000000E+00  0.00000000E+00
  0.00000000E+00  0.00000000E+00  0.00000000E+00
  0.00000000E+00  0.00000000E+00  0.00000000E+00
  0.00000000E+00  0.00000000E+00  0.00000000E+00
  0.00000000E+00  0.00000000E+00  0.00000000E+00
  0.00000000E+00  0.00000000E+00  0.00000000E+00
  0.00000000E+00  0.00000000E+00  0.00000000E+00
  0.00000000E+00  0.00000000E+00  0.00000000E+00
  0.00000000E+00  0.00000000E+00  0.00000000E+00
  0.00000000E+00  0.00000000E+00  0.00000000E+00
  0.00000000E+00  0.00000000E+00  0.00000000E+00
  0.00000000E+00  0.00000000E+00  0.00000000E+00
  0.00000000E+00  0.00000000E+00  0.00000000E+00
  0.00000000E+00  0.00000000E+00  0.00000000E+00
  0.00000000E+00  0.00000000E+00  0.00000000E+00
  0.00000000E+00  0.00000000E+00  0.00000000E+00
  0.00000000E+00  0.00000000E+00  0.00000000E+00
  0.00000000E+00  0.00000000E+00  0.00000000E+00
  0.00000000E+00  0.00000000E+00  0.00000000E+00
  0.00000000E+00  0.00000000E+00  0.00000000E+00
  0.00000000E+00  0.00000000E+00  0.00000000E+00
  0.00000000E+00  0.00000000E+00  0.00000000E+00
  0.00000000E+00  0.00000000E+00  0.00000000E+00
  0.00000000E+00  0.00000000E+00  0.00000000E+00
  0.00000000E+00  0.00000000E+00  0.00000000E+00
  0.00000000E+00  0.00000000E+00  0.00000000E+00
  0.00000000E+00  0.00000000E+00  0.00000000E+00
  0.00000000E+00  0.00000000E+00  0.00000000E+00
  0.00000000E+00  0.00000000E+00  0.00000000E+00
  0.00000000E+00  0.00000000E+00  0.00000000E+00
  0.00000000E+00  0.00000000E+00  0.00000000E+00
  0.00000000E+00  0.00000000E+00  0.00000000E+00
  0.00000000E+00  0.00000000E+00  0.00000000E+00
  0.00000000E+00  0.00000000E+00  0.00000000E+00
  0.00000000E+00  0.00000000E+00  0.00000000E+00
  0.00000000E+00  0.00000000E+00  0.00000000E+00
  0.00000000E+00  0.00000000E+00  0.00000000E+00
  0.00000000E+00  0.00000000E+00  0.00000000E+00
  0.00000000E+00  0.00000000E+00  0.00000000E+00
  0.00000000E+00  0.00000000E+00  0.00000000E+00
  0.00000000E+00  0.00000000E+00  0.00000000E+00
  0.00000000E+00  0.00000000E+00  0.00000000E+00
  0.00000000E+00  0.00000000E+00  0.00000000E+00
  0.00000000E+00  0.00000000E+00  0.00000000E+00
  0.00000000E+00  0.00000000E+00  0.00000000E+00
  0.00000000E+00  0.00000000E+00  0.00000000E+00
  0.00000000E+00  0.00000000E+00  0.00000000E+00
  0.00000000E+00  0.00000000E+00  0.00000000E+00
  0.00000000E+00  0.00000000E+00  0.00000000E+00
  0.00000000E+00  0.00000000E+00  0.00000000E+00
  0.00000000E+00  0.00000000E+00  0.00000000E+00
  0.00000000E+00  0.00000000E+00  0.00000000E+00
  0.00000000E+00  0.00000000E+00  0.00000000E+00
  0.00000000E+00  0.00000000E+00  0.00000000E+00
  0.00000000E+00  0.00000000E+00  0.00000000E+00
  0.00000000E+00  0.00000000E+00  0.00000000E+00
  0.00000000E+00  0.00000000E+00  0.00000000E+00
  0.00000000E+00  0.00000000E+00  0.00000000E+00
  0.00000000E+00  0.00000000E+00  0.00000000E+00
  0.00000000E+00  0.00000000E+00  0.00000000E+00
  0.00000000E+00  0.00000000E+00  0.00000000E+00
  0.00000000E+00  0.00000000E+00  0.00000000E+00
  0.00000000E+00  0.00000000E+00  0.00000000E+00
  0.00000000E+00  0.00000000E+00  0.00000000E+00
  0.00000000E+00  0.00000000E+00  0.00000000E+00
  0.00000000E+00  0.00000000E+00  0.00000000E+00
  0.00000000E+00  0.00000000E+00  0.00000000E+00
  0.00000000E+00  0.00000000E+00  0.00000000E+00
  0.00000000E+00  0.00000000E+00  0.00000000E+00
  0.00000000E+00  0.00000000E+00  0.00000000E+00
  0.00000000E+00  0.00000000E+00  0.00000000E+00
  0.00000000E+00  0.00000000E+00  0.00000000E+00
  0.00000000E+00  0.00000000E+00  0.00000000E+00
  0.00000000E+00  0.00000000E+00  0.00000000E+00
  0.00000000E+00  0.00000000E+00  0.00000000E+00
  0.00000000E+00  0.00000000E+00  0.00000000E+00
  0.00000000E+00  0.00000000E+00  0.00000000E+00
  0.00000000E+00  0.00000000E+00  0.00000000E+00
  0.00000000E+00  0.00000000E+00  0.00000000E+00
  0.00000000E+00  0.00000000E+00  0.00000000E+00
  0.00000000E+00  0.00000000E+00  0.00000000E+00
  0.00000000E+00  0.00000000E+00  0.00000000E+00
  0.00000000E+00  0.00000000E+00  0.00000000E+00
  0.00000000E+00  0.00000000E+00  0.00000000E+00
  0.00000000E+00  0.00000000E+00  0.00000000E+00
  0.00000000E+00  0.00000000E+00  0.00000000E+00
  0.00000000E+00  0.00000000E+00  0.00000000E+00
  0.00000000E+00  0.00000000E+00  0.00000000E+00
  0.00000000E+00  0.00000000E+00  0.00000000E+00
  0.00000000E+00  0.00000000E+00  0.00000000E+00
  0.00000000E+00  0.00000000E+00  0.00000000E+00
  0.00000000E+00  0.00000000E+00  0.00000000E+00
  0.00000000E+00  0.00000000E+00  0.00000000E+00
  0.00000000E+00  0.00000000E+00  0.00000000E+00
  0.00000000E+00  0.00000000E+00  0.00000000E+00
  0.00000000E+00  0.00000000E+00  0.00000000E+00
  0.00000000E+00  0.00000000E+00  0.00000000E+00
  0.00000000E+00  0.00000000E+00  0.00000000E+00
  0.00000000E+00  0.00000000E+00  0.00000000E+00
  0.00000000E+00  0.00000000E+00  0.00000000E+00
  0.00000000E+00  0.00000000E+00  0.00000000E+00
  0.00000000E+00  0.00000000E+00  0.00000000E+00
  0.00000000E+00  0.00000000E+00  0.00000000E+00
  0.00000000E+00  0.00000000E+00  0.00000000E+00
  0.00000000E+00  0.00000000E+00  0.00000000E+00
  0.00000000E+00  0.00000000E+00  0.00000000E+00
  0.00000000E+00  0.00000000E+00  0.00000000E+00
  0.00000000E+00  0.00000000E+00  0.00000000E+00
  0.00000000E+00  0.00000000E+00  0.00000000E+00
  0.00000000E+00  0.00000000E+00  0.00000000E+00
  0.00000000E+00  0.00000000E+00  0.00000000E+00
  0.00000000E+00  0.00000000E+00  0.00000000E+00
  0.00000000E+00  0.00000000E+00  0.00000000E+00
  0.00000000E+00  0.00000000E+00  0.00000000E+00
  0.00000000E+00  0.00000000E+00  0.00000000E+00
  0.00000000E+00  0.00000000E+00  0.00000000E+00
  0.00000000E+00  0.00000000E+00  0.00000000E+00
  0.00000000E+00  0.00000000E+00  0.00000000E+00
  0.00000000E+00  0.00000000E+00  0.00000000E+00
  0.00000000E+00  0.00000000E+00  0.00000000E+00
  0.00000000E+00  0.00000000E+00  0.00000000E+00
  0.00000000E+00  0.00000000E+00  0.00000000E+00
  0.00000000E+00  0.00000000E+00  0.00000000E+00
  0.00000000E+00  0.00000000E+00  0.00000000E+00
  0.00000000E+00  0.00000000E+00  0.00000000E+00
  0.00000000E+00  0.00000000E+00  0.00000000E+00
  0.00000000E+00  0.00000000E+00  0.00000000E+00
  0.00000000E+00  0.00000000E+00  0.00000000E+00
  0.00000000E+00  0.00000000E+00  0.00000000E+00
  0.00000000E+00  0.00000000E+00  0.00000000E+00
  0.00000000E+00  0.00000000E+00  0.00000000E+00
  0.00000000E+00  0.00000000E+00  0.00000000E+00
  0.00000000E+00  0.00000000E+00  0.00000000E+00
  0.00000000E+00  0.00000000E+00  0.00000000E+00
  0.00000000E+00  0.00000000E+00  0.00000000E+00
  0.00000000E+00  0.00000000E+00  0.00000000E+00
  0.00000000E+00  0.00000000E+00  0.00000000E+00
  0.00000000E+00  0.00000000E+00  0.00000000E+00
  0.00000000E+00  0.00000000E+00  0.00000000E+00
  0.00000000E+00  0.00000000E+00  0.00000000E+00
  0.00000000E+00  0.00000000E+00  0.00000000E+00
  0.00000000E+00  0.00000000E+00  0.00000000E+00
  0.00000000E+00  0.00000000E+00  0.00000000E+00
  0.00000000E+00  0.00000000E+00  0.00000000E+00
  0.00000000E+00  0.00000000E+00  0.00000000E+00
  0.00000000E+00  0.00000000E+00  0.00000000E+00
  0.00000000E+00  0.00000000E+00  0.00000000E+00
  0.00000000E+00  0.00000000E+00  0.00000000E+00
  0.00000000E+00  0.00000000E+00  0.00000000E+00
  0.00000000E+00  0.00000000E+00  0.00000000E+00
  0.00000000E+00  0.00000000E+00  0.00000000E+00
  0.00000000E+00  0.00000000E+00  0.00000000E+00
  0.00000000E+00  0.00000000E+00  0.00000000E+00
  0.00000000E+00  0.00000000E+00  0.00000000E+00
  0.00000000E+00  0.00000000E+00  0.00000000E+00
  0.00000000E+00  0.00000000E+00  0.00000000E+00
  0.00000000E+00  0.00000000E+00  0.00000000E+00
  0.00000000E+00  0.00000000E+00  0.00000000E+00
  0.00000000E+00  0.00000000E+00  0.00000000E+00
  0.00000000E+00  0.00000000E+00  0.00000000E+00
  0.00000000E+00  0.00000000E+00  0.00000000E+00
  0.00000000E+00  0.00000000E+00  0.00000000E+00
  0.00000000E+00  0.00000000E+00  0.00000000E+00
  0.00000000E+00  0.00000000E+00  0.00000000E+00
  0.00000000E+00  0.00000000E+00  0.00000000E+00
  0.00000000E+00  0.00000000E+00  0.00000000E+00
  0.00000000E+00  0.00000000E+00  0.00000000E+00
  0.00000000E+00  0.00000000E+00  0.00000000E+00
  0.00000000E+00  0.00000000E+00  0.00000000E+00
  0.00000000E+00  0.00000000E+00  0.00000000E+00
  0.00000000E+00  0.00000000E+00  0.00000000E+00
  0.00000000E+00  0.00000000E+00  0.00000000E+00
  0.00000000E+00  0.00000000E+00  0.00000000E+00
  0.00000000E+00  0.00000000E+00  0.00000000E+00
  0.00000000E+00  0.00000000E+00  0.00000000E+00
  0.00000000E+00  0.00000000E+00  0.00000000E+00
  0.00000000E+00  0.00000000E+00  0.00000000E+00
  0.00000000E+00  0.00000000E+00  0.00000000E+00
  0.00000000E+00  0.00000000E+00  0.00000000E+00
  0.00000000E+00  0.00000000E+00  0.00000000E+00
  0.00000000E+00  0.00000000E+00  0.00000000E+00
  0.00000000E+00  0.00000000E+00  0.00000000E+00
  0.00000000E+00  0.00000000E+00  0.00000000E+00
  0.00000000E+00  0.00000000E+00  0.00000000E+00
  0.00000000E+00  0.00000000E+00  0.00000000E+00
  0.00000000E+00  0.00000000E+00  0.00000000E+00
  0.00000000E+00  0.00000000E+00  0.00000000E+00
  0.00000000E+00  0.00000000E+00  0.00000000E+00
  0.00000000E+00  0.00000000E+00  0.00000000E+00
  0.00000000E+00  0.00000000E+00  0.00000000E+00
  0.00000000E+00  0.00000000E+00  0.00000000E+00
  0.00000000E+00  0.00000000E+00  0.00000000E+00
  0.00000000E+00  0.00000000E+00  0.00000000E+00
  0.00000000E+00  0.00000000E+00  0.00000000E+00
  0.00000000E+00  0.00000000E+00  0.00000000E+00
  0.00000000E+00  0.00000000E+00  0.00000000E+00
  0.00000000E+00  0.00000000E+00  0.00000000E+00
  0.00000000E+00  0.00000000E+00  0.00000000E+00
  0.00000000E+00  0.00000000E+00  0.00000000E+00
  0.00000000E+00  0.00000000E+00  0.00000000E+00
  0.00000000E+00  0.00000000E+00  0.00000000E+00
  0.00000000E+00  0.00000000E+00  0.00000000E+00
  0.00000000E+00  0.00000000E+00  0.00000000E+00
  0.00000000E+00  0.00000000E+00  0.00000000E+00
  0.00000000E+00  0.00000000E+00  0.00000000E+00
  0.00000000E+00  0.00000000E+00  0.00000000E+00
  0.00000000E+00  0.00000000E+00  0.00000000E+00
  0.00000000E+00  0.00000000E+00  0.00000000E+00
  0.00000000E+00  0.00000000E+00  0.00000000E+00
  0.00000000E+00  0.00000000E+00  0.00000000E+00
  0.00000000E+00  0.00000000E+00  0.00000000E+00
  0.00000000E+00  0.00000000E+00  0.00000000E+00
  0.00000000E+00  0.00000000E+00  0.00000000E+00
  0.00000000E+00  0.00000000E+00  0.00000000E+00
  0.00000000E+00  0.00000000E+00  0.00000000E+00
  0.00000000E+00  0.00000000E+00  0.00000000E+00
  0.00000000E+00  0.00000000E+00  0.00000000E+00
  0.00000000E+00  0.00000000E+00  0.00000000E+00
  0.00000000E+00  0.00000000E+00  0.00000000E+00
  0.00000000E+00  0.00000000E+00  0.00000000E+00
  0.00000000E+00  0.00000000E+00  0.00000000E+00
  0.00000000E+00  0.00000000E+00  0.00000000E+00
  0.00000000E+00  0.00000000E+00  0.00000000E+00
  0.00000000E+00  0.00000000E+00  0.00000000E+00
  0.00000000E+00  0.00000000E+00  0.00000000E+00
  0.00000000E+00  0.00000000E+00  0.00000000E+00
  0.00000000E+00  0.00000000E+00  0.00000000E+00
  0.00000000E+00  0.00000000E+00  0.00000000E+00
  0.00000000E+00  0.00000000E+00  0.00000000E+00
  0.00000000E+00  0.00000000E+00  0.00000000E+00
  0.00000000E+00  0.00000000E+00  0.00000000E+00
  0.00000000E+00  0.00000000E+00  0.00000000E+00
  0.00000000E+00  0.00000000E+00  0.00000000E+00
  0.00000000E+00  0.00000000E+00  0.00000000E+00
  0.00000000E+00  0.00000000E+00  0.00000000E+00
  0.00000000E+00  0.00000000E+00  0.00000000E+00
  0.00000000E+00  0.00000000E+00  0.00000000E+00
  0.00000000E+00  0.00000000E+00  0.00000000E+00
  0.00000000E+00  0.00000000E+00  0.00000000E+00
  0.00000000E+00  0.00000000E+00  0.00000000E+00