au_111_4_layers_5x5_with_h2o_6_bilayers_h_down
1.0
      14.6976995468           0.0000000000           0.0000000000
      -7.3488497734          12.7285811847           0.0000000000
       0.0000000000           0.0000000000          49.2004013062
Au
100
Selective dynamics
Cartesian
       0.0000000000           0.0000000000           0.0000000000 F F F
       2.9396132130           1.6971017600           2.3999956590 T T T
      -0.0000731500           3.3943306000           4.8004832580 T T T
       0.0000000000           0.0000000000           7.2004785510 T T T
      -1.4697699770           2.5457162750           0.0000000000 F F F
       1.4698432360           4.2428180350           2.3999956590 T T T
       1.4696964980           0.8486145150           4.8004832580 T T T
      -1.4697699770           2.5457162750           7.2004785510 T T T
       1.4697699770           2.5457162750           0.0000000000 F F F
      -1.4696966070           4.2428180350           2.3999956590 T T T
       4.4092364510           0.8486145150           4.8004832580 T T T
       1.4697699770           2.5457162750           7.2004785510 T T T
       2.9395399530           0.0000000000           0.0000000000 F F F
       0.0000734790           1.6971017600           2.3999956590 T T T
       2.9394665840           3.3943306000           4.8004832580 T T T
       2.9395399530           0.0000000000           7.2004785510 T T T
       5.8790799060           0.0000000000           0.0000000000 F F F
       8.8186935570           1.6971017600           2.3999956590 T T T
       5.8790067560           3.3943306000           4.8004832580 T T T
       5.8790799060           0.0000000000           7.2004785510 T T T
       4.4093099300           2.5457162750           0.0000000000 F F F
       7.3489227050           4.2428180350           2.3999956590 T T T
       7.3487766230           0.8486145150           4.8004832580 T T T
       4.4093099300           2.5457162750           7.2004785510 T T T
       7.3488501020           2.5457162750           0.0000000000 F F F
       4.4093834090           4.2428180350           2.3999956590 T T T
      10.2884626580           0.8486145150           4.8004832580 T T T
       7.3488501020           2.5457162750           7.2004785510 T T T
       8.8186200790           0.0000000000           0.0000000000 F F F
       5.8791533850           1.6971017600           2.3999956590 T T T
       8.8186936670           3.3943306000           4.8004832580 T T T
       8.8186200790           0.0000000000           7.2004785510 T T T
      11.7581598130           0.0000000000           0.0000000000 F F F
      11.7582334010           3.3943306000           4.8004832580 T T T
      11.7581598130           0.0000000000           7.2004785510 T T T
      10.2883889600           2.5457162750           0.0000000000 F F F
      13.2280023920           0.8486145150           4.8004832580 T T T
      10.2883889600           2.5457162750           7.2004785510 T T T
      10.2884633150           4.2428180350           2.3999956590 T T T
      11.7582332910           1.6971017600           2.3999956590 T T T
      -2.9395399530           5.0914325500           0.0000000000 F F F
       0.0000731500           6.7885345000           2.3999956590 T T T
      -2.9396133220           8.4857635290           4.8004832580 T T T
      -2.9395399530           5.0914325500           7.2004785510 T T T
      -4.4093100390           7.6371490140           0.0000000000 F F F
      -1.4697698670           9.3343780440           2.3999956590 T T T
      -1.4698434550           5.9400474440           4.8004832580 T T T
      -4.4093100390           7.6371490140           7.2004785510 T T T
      -1.4697698670           7.6371490140           0.0000000000 F F F
      -4.4093097110           9.3343780440           2.3999956590 T T T
       1.4696962790           5.9400474440           4.8004832580 T T T
      -1.4697698670           7.6371490140           7.2004785510 T T T
       0.0000000000           5.0914325500           0.0000000000 F F F
      -2.9394665840           6.7885345000           2.3999956590 T T T
      -0.0000735880           8.4857635290           4.8004832580 T T T
       0.0000000000           5.0914325500           7.2004785510 T T T
       2.9395399530           5.0914325500           0.0000000000 F F F
       5.8791534950           6.7885345000           2.3999956590 T T T
       2.9394665840           8.4857635290           4.8004832580 T T T
       2.9395399530           5.0914325500           7.2004785510 T T T
       1.4697703050           7.6371490140           0.0000000000 F F F
       4.4093100390           9.3343780440           2.3999956590 T T T
       4.4092364510           5.9400474440           4.8004832580 T T T
       1.4697703050           7.6371490140           7.2004785510 T T T
       4.4093100390           7.6371490140           0.0000000000 F F F
       1.4697698670           9.3343780440           2.3999956590 T T T
       7.3489233620           5.9400474440           4.8004832580 T T T
       4.4093100390           7.6371490140           7.2004785510 T T T
       5.8790801250           5.0914325500           0.0000000000 F F F
       2.9396133220           6.7885345000           2.3999956590 T T T
       5.8791534950           8.4857635290           4.8004832580 T T T
       5.8790801250           5.0914325500           7.2004785510 T T T
       8.8186198590           5.0914325500           0.0000000000 F F F
       8.8186932290           8.4857635290           4.8004832580 T T T
       8.8186198590           5.0914325500           7.2004785510 T T T
       7.3488497730           7.6371490140           0.0000000000 F F F
      10.2884630960           5.9400474440           4.8004832580 T T T
       7.3488497730           7.6371490140           7.2004785510 T T T
       7.3488497730           9.3343780440           2.3999956590 T T T
       8.8186932290           6.7885345000           2.3999956590 T T T
      -5.8790799060          10.1828651000           0.0000000000 F F F
      -2.9395401720          11.8800948870           2.3999956590 T T T
      -5.8790799060          10.1828651000           7.2004785510 T T T
      -4.4093831900          11.0314796140           4.8004832580 T T T
      -1.4698434550          11.0314796140           4.8004832580 T T T
      -2.9395399530          10.1828651000           0.0000000000 F F F
      -5.8790800160          11.8800948870           2.3999956590 T T T
      -2.9395399530          10.1828651000           7.2004785510 T T T
       0.0000000000          10.1828651000           0.0000000000 F F F
       2.9395397340          11.8800948870           2.3999956590 T T T
       0.0000000000          10.1828651000           7.2004785510 T T T
       1.4696967170          11.0314796140           4.8004832580 T T T
       4.4093836280          11.0314796140           4.8004832580 T T T
       2.9395401720          10.1828651000           0.0000000000 F F F
       0.0000000000          11.8800948870           2.3999956590 T T T
       2.9395401720          10.1828651000           7.2004785510 T T T
       5.8790799060          10.1828651000           0.0000000000 F F F
       5.8790799060          10.1828651000           7.2004785510 T T T
       7.3489233620          11.0314796140           4.8004832580 T T T
       5.8790794680          11.8800948870           2.3999956590 T T T
