au_111_4_layers_5x5_with_h2o_6_bilayers_h_down
1.0
      14.6976995468           0.0000000000           0.0000000000
      -7.3488497734          12.7285811847           0.0000000000
       0.0000000000           0.0000000000          49.2004013062
Au H O
100 48 24
Selective dynamics
Cartesian
       0.0000000000           0.0000000000           0.0000000000 F F F
       2.9396132130           1.6971017600           2.3999956590 T T T
      -0.0000731500           3.3943306000           4.8004832580 T T T
       0.0000000000           0.0000000000           7.2004785510 T T T
      -1.4697699770           2.5457162750           0.0000000000 F F F
       1.4698432360           4.2428180350           2.3999956590 T T T
       1.4696964980           0.8486145150           4.8004832580 T T T
      -1.4697699770           2.5457162750           7.2004785510 T T T
       1.4697699770           2.5457162750           0.0000000000 F F F
      -1.4696966070           4.2428180350           2.3999956590 T T T
       4.4092364510           0.8486145150           4.8004832580 T T T
       1.4697699770           2.5457162750           7.2004785510 T T T
       2.9395399530           0.0000000000           0.0000000000 F F F
       0.0000734790           1.6971017600           2.3999956590 T T T
       2.9394665840           3.3943306000           4.8004832580 T T T
       2.9395399530           0.0000000000           7.2004785510 T T T
       5.8790799060           0.0000000000           0.0000000000 F F F
       8.8186935570           1.6971017600           2.3999956590 T T T
       5.8790067560           3.3943306000           4.8004832580 T T T
       5.8790799060           0.0000000000           7.2004785510 T T T
       4.4093099300           2.5457162750           0.0000000000 F F F
       7.3489227050           4.2428180350           2.3999956590 T T T
       7.3487766230           0.8486145150           4.8004832580 T T T
       4.4093099300           2.5457162750           7.2004785510 T T T
       7.3488501020           2.5457162750           0.0000000000 F F F
       4.4093834090           4.2428180350           2.3999956590 T T T
      10.2884626580           0.8486145150           4.8004832580 T T T
       7.3488501020           2.5457162750           7.2004785510 T T T
       8.8186200790           0.0000000000           0.0000000000 F F F
       5.8791533850           1.6971017600           2.3999956590 T T T
       8.8186936670           3.3943306000           4.8004832580 T T T
       8.8186200790           0.0000000000           7.2004785510 T T T
      11.7581598130           0.0000000000           0.0000000000 F F F
      11.7582334010           3.3943306000           4.8004832580 T T T
      11.7581598130           0.0000000000           7.2004785510 T T T
      10.2883889600           2.5457162750           0.0000000000 F F F
      13.2280023920           0.8486145150           4.8004832580 T T T
      10.2883889600           2.5457162750           7.2004785510 T T T
      10.2884633150           4.2428180350           2.3999956590 T T T
      11.7582332910           1.6971017600           2.3999956590 T T T
      -2.9395399530           5.0914325500           0.0000000000 F F F
       0.0000731500           6.7885345000           2.3999956590 T T T
      -2.9396133220           8.4857635290           4.8004832580 T T T
      -2.9395399530           5.0914325500           7.2004785510 T T T
      -4.4093100390           7.6371490140           0.0000000000 F F F
      -1.4697698670           9.3343780440           2.3999956590 T T T
      -1.4698434550           5.9400474440           4.8004832580 T T T
      -4.4093100390           7.6371490140           7.2004785510 T T T
      -1.4697698670           7.6371490140           0.0000000000 F F F
      -4.4093097110           9.3343780440           2.3999956590 T T T
       1.4696962790           5.9400474440           4.8004832580 T T T
      -1.4697698670           7.6371490140           7.2004785510 T T T
       0.0000000000           5.0914325500           0.0000000000 F F F
      -2.9394665840           6.7885345000           2.3999956590 T T T
      -0.0000735880           8.4857635290           4.8004832580 T T T
       0.0000000000           5.0914325500           7.2004785510 T T T
       2.9395399530           5.0914325500           0.0000000000 F F F
       5.8791534950           6.7885345000           2.3999956590 T T T
       2.9394665840           8.4857635290           4.8004832580 T T T
       2.9395399530           5.0914325500           7.2004785510 T T T
       1.4697703050           7.6371490140           0.0000000000 F F F
       4.4093100390           9.3343780440           2.3999956590 T T T
       4.4092364510           5.9400474440           4.8004832580 T T T
       1.4697703050           7.6371490140           7.2004785510 T T T
       4.4093100390           7.6371490140           0.0000000000 F F F
       1.4697698670           9.3343780440           2.3999956590 T T T
       7.3489233620           5.9400474440           4.8004832580 T T T
       4.4093100390           7.6371490140           7.2004785510 T T T
       5.8790801250           5.0914325500           0.0000000000 F F F
       2.9396133220           6.7885345000           2.3999956590 T T T
       5.8791534950           8.4857635290           4.8004832580 T T T
       5.8790801250           5.0914325500           7.2004785510 T T T
       8.8186198590           5.0914325500           0.0000000000 F F F
       8.8186932290           8.4857635290           4.8004832580 T T T
       8.8186198590           5.0914325500           7.2004785510 T T T
       7.3488497730           7.6371490140           0.0000000000 F F F
      10.2884630960           5.9400474440           4.8004832580 T T T
       7.3488497730           7.6371490140           7.2004785510 T T T
       7.3488497730           9.3343780440           2.3999956590 T T T
       8.8186932290           6.7885345000           2.3999956590 T T T
      -5.8790799060          10.1828651000           0.0000000000 F F F
      -2.9395401720          11.8800948870           2.3999956590 T T T
      -5.8790799060          10.1828651000           7.2004785510 T T T
      -4.4093831900          11.0314796140           4.8004832580 T T T
      -1.4698434550          11.0314796140           4.8004832580 T T T
      -2.9395399530          10.1828651000           0.0000000000 F F F
      -5.8790800160          11.8800948870           2.3999956590 T T T
      -2.9395399530          10.1828651000           7.2004785510 T T T
       0.0000000000          10.1828651000           0.0000000000 F F F
       2.9395397340          11.8800948870           2.3999956590 T T T
       0.0000000000          10.1828651000           7.2004785510 T T T
       1.4696967170          11.0314796140           4.8004832580 T T T
       4.4093836280          11.0314796140           4.8004832580 T T T
       2.9395401720          10.1828651000           0.0000000000 F F F
       0.0000000000          11.8800948870           2.3999956590 T T T
       2.9395401720          10.1828651000           7.2004785510 T T T
       5.8790799060          10.1828651000           0.0000000000 F F F
       5.8790799060          10.1828651000           7.2004785510 T T T
       7.3489233620          11.0314796140           4.8004832580 T T T
       5.8790794680          11.8800948870           2.3999956590 T T T
       0.3143049270           2.1526760330          10.5173621500 T T T
      -1.9673052740           5.0157566200          10.5173621500 T T T
       1.7071194480           1.3485340670          10.5173621500 T T T
       5.3274248510           0.8041419650          10.5173621500 T T T
       2.5932018870           0.0000000000           8.9004377470 T T T
       3.5074252250           0.0000000000          10.2606476910 T T T
       2.3778238340           4.1185116910           8.9004377470 T T T
       1.9207123840           3.3267714350          10.2606476910 T T T
      -1.2966009440           2.2457787120           8.9004377470 T T T
      -1.7537127220           3.0375195360          10.2606476910 T T T
       7.6631537140           2.1526760330          10.5173621500 T T T
       5.3815437330           5.0157566200          10.5173621500 T T T
       3.9887299230           4.2116149390          10.5173621500 T T T
       9.0559694410           1.3485340670          10.5173621500 T T T
      12.6762750620           0.8041419650          10.5173621500 T T T
       9.9420523180           0.0000000000           8.9004377470 T T T
      10.8562756560           0.0000000000          10.2606476910 T T T
       9.7266731690           4.1185116910           8.9004377470 T T T
       9.2695621570           3.3267714350          10.2606476910 T T T
       6.0522488300           2.2457787120           8.9004377470 T T T
       5.5951370510           3.0375195360          10.2606476910 T T T
       1.6530003480           5.5601485320          10.5173621500 T T T
      -3.3601197410           8.5169666250          10.5173621500 T T T
      -5.6417303800          11.3800479710          10.5173621500 T T T
      -1.9673051650           7.7128245650          10.5173621500 T T T
       1.6530007860           7.1684326530          10.5173621500 T T T
      -1.0812229990           6.3642905920           8.9004377470 T T T
      -0.1669996620           6.3642905920          10.2606476910 T T T
      -1.2966008340          10.4828026630           8.9004377470 T T T
      -1.7537125030           9.6910620280          10.2606476910 T T T
      -4.9710261590           8.6100698730           8.9004377470 T T T
      -5.4281378280           9.4018105080          10.2606476910 T T T
       9.0018501210           5.5601485320          10.5173621500 T T T
       3.9887297040           8.5169666250          10.5173621500 T T T
       1.7071192840          11.3800479710          10.5173621500 T T T
       0.3143052550          10.5759059110          10.5173621500 T T T
       5.3815446090           7.7128245650          10.5173621500 T T T
       9.0018509970           7.1684326530          10.5173621500 T T T
       6.2676265550           6.3642905920           8.9004377470 T T T
       7.1818507690           6.3642905920          10.2606476910 T T T
       6.0522489390          10.4828026630           8.9004377470 T T T
       5.5951372700           9.6910620280          10.2606476910 T T T
       2.3778236140           8.6100698730           8.9004377470 T T T
       1.9207119460           9.4018105080          10.2606476910 T T T
      11.3375801340           4.2116149390          10.5173621500 T T T
       7.6631541520          10.5759059110          10.5173621500 T T T
      -2.0214236630          11.9244391240          10.5173621500 T T T
       5.3274252340          11.9244391240          10.5173621500 T T T
       2.5091154310           0.0000000000           9.8673538020 T T T
       2.4198670620           4.1913326990           9.8673538020 T T T
      -1.2545577150           2.1729577040           9.8673538020 T T T
       4.8076066990           0.0000000000          10.7977336710 T T T
       1.2706213180           2.2007806800          10.7977336710 T T T
      -2.4038035690           4.1635099120          10.7977336710 T T T
       9.8579654230           0.0000000000           9.8673538020 T T T
       9.7687168350           4.1913326990           9.8673538020 T T T
       6.0942920580           2.1729577040           9.8673538020 T T T
      12.1564573490           0.0000000000          10.7977336710 T T T
       8.6194715290           2.2007806800          10.7977336710 T T T
       4.9450462050           4.1635099120          10.7977336710 T T T
      -1.1653094560           6.3642905920           9.8673538020 T T T
      -1.2545573870          10.5556240500           9.8673538020 T T T
      -4.9289827120           8.5372484860           9.8673538020 T T T
       1.1331822510           6.3642905920          10.7977336710 T T T
      -2.4038042260           8.5650724100          10.7977336710 T T T
      -6.0782286740          10.5278008840          10.7977336710 T T T
       6.1835396600           6.3642905920           9.8673538020 T T T
       6.0942915100          10.5556240500           9.8673538020 T T T
       2.4198670620           8.5372484860           9.8673538020 T T T
       8.4820315860           6.3642905920          10.7977336710 T T T
       4.9450459860           8.5650724100          10.7977336710 T T T
       1.2706210990          10.5278008840          10.7977336710 T T T
