bilayer_5                               
   1.00000000000000     
    14.6976995467999991    0.0000000000000000    0.0000000000000000
    -7.3488497733999996   12.7285811846999994    0.0000000000000000
     0.0000000000000000    0.0000000000000000   49.2004013061999999
   H    O 
   240   120
Selective dynamics
Direct
  0.1672312213495693  0.0632317919403028  0.2961274318031662
  0.1670961315383009  0.0632489123474892  0.4485979488155299
  0.3960005706011225  0.3327687935769875  0.2961274318031662
  0.3961527808195761  0.3329038833882548  0.4485979488155299
  0.1042334321540901  0.1672203129710389  0.2192415560114186
  0.1039140556601030  0.1671661779413751  0.3723456059228339
  0.1037433401527227  0.1671276491454554  0.5253406609053117
  0.0629868808590413  0.3957665753460506  0.2192415560114186
  0.0632521223233644  0.3960859518400381  0.3723456059228339
  0.0633843090348249  0.3962566673474180  0.5253406609053117
  0.1672202980251632  0.1042334320899707  0.2192415560114186
  0.1671661629954994  0.1039140555959836  0.3723456059228339
  0.1671276341995798  0.1037433400886033  0.5253406609053117
  0.3957665455085777  0.0629868808025105  0.2192415560114186
  0.3960859220025651  0.0632521222668336  0.3723456059228339
  0.3962566375099451  0.0633843089782941  0.5253406609053117
  0.0632317993331376  0.1672312362495865  0.2961274318031662
  0.0632489197403240  0.1670961464383181  0.4485979488155299
  0.3327687935600410  0.3960005705902583  0.2961274318031662
  0.3329038833713083  0.3961527808087119  0.4485979488155299
  0.1757908569230223 -0.0000000000000000  0.1864090333632929
  0.1716027231782370 -0.0000000000000000  0.3396734800179307
  0.1713557294858774 -0.0000000000000000  0.4921792817885569
  0.2366181892692875 -0.0000000000000000  0.2138094003999311
  0.2342203751261697 -0.0000000000000000  0.3670278298937498
  0.2342422640384591 -0.0000000000000000  0.5197317411859482
  0.3242091281809889  0.3242091281444599  0.1864090333632929
  0.3283972619257741  0.3283972618892451  0.3396734800179307
  0.3286442556181342  0.3286442555816052  0.4921792817885569
  0.2633818256400237  0.2633818256082198  0.2138094003999311
  0.2657796397831416  0.2657796397513377  0.3670278298937498
  0.2657577508708525  0.2657577508390486  0.5197317411859482
  0.9999999999942517  0.1757908569795673  0.1864090333632929
  0.9999999999942517  0.1716027232347820  0.3396734800179307
  0.9999999999942517  0.1713557295424224  0.4921792817885569
  0.9999999999769926  0.2366181892913144  0.2138094003999311
  0.9999999999769926  0.2342203751481966  0.3670278298937498
  0.9999999999769926  0.2342422640604860  0.5197317411859482
  0.3287519166999960 -0.0000000000000000  0.2634661529861704
  0.3282975584351308 -0.0000000000000000  0.4158773231148430
  0.2657681002889459 -0.0000000000000000  0.2907577605887808
  0.2657378783418468 -0.0000000000000000  0.4432476760901980
  0.1712480534220800  0.1712480683402800  0.2634661529861704
  0.1717024116869453  0.1717024266051453  0.4158773231148430
  0.2342318997381115  0.2342318997243483  0.2907577605887808
  0.2342621216852105  0.2342621216714473  0.4432476760901980
  0.9999999999685727  0.3287519167051830  0.2634661529861704
  0.9999999999685727  0.3282975584403177  0.4158773231148430
  0.0000000000188862  0.2657681003267183  0.2907577605887808
  0.0000000000188862  0.2657378783796193  0.4432476760901980
  0.6672312064220617  0.0632317919403028  0.2961274318031662
  0.6670961166107942  0.0632489123474892  0.4485979488155299
  0.8960005705739076  0.3327687935769875  0.2961274318031662
  0.8961527807923624  0.3329038833882548  0.4485979488155299
  0.4367682229661163  0.1039994368457636  0.2961274318031662
  0.4367511025589302  0.1038472266273097  0.4485979488155299
  0.6042333650415530  0.1672203129710389  0.2192415560114186
  0.6039139885475655  0.1671661779413751  0.3723456059228339
  0.6037432730401853  0.1671276491454554  0.5253406609053117
  0.5629868287148250  0.3957665753460506  0.2192415560114186
  0.5632520701791487  0.3960859518400381  0.3723456059228339
  0.5633842568906100  0.3962566673474180  0.5253406609053117
  0.4370131415328746  0.3327797168555345  0.2192415560114186
  0.4367479000685516  0.3328338518851987  0.3723456059228339
  0.4366157133570908  0.3328723806811170  0.5253406609053117
  0.6672203129662788  0.1042334320899707  0.2192415560114186
  0.6671661779366153  0.1039140555959837  0.3723456059228339
  0.6671276491406941  0.1037433400886033  0.5253406609053117
  0.8957665752819450  0.0629868808025105  0.2192415560114186
  0.8960859517759325  0.0632521222668336  0.3723456059228339
  0.8962566672833130  0.0633843089782941  0.5253406609053117
  0.5632317769895029  0.1672312362495865  0.2961274318031662
  0.5632488973966894  0.1670961464383181  0.4485979488155299
  0.8327687339996973  0.3960005705902583  0.2961274318031662
  0.8329038238109648  0.3961527808087119  0.4485979488155299
  0.6757908420635482 -0.0000000000000000  0.1864090333632929
  0.6716027083187638 -0.0000000000000000  0.3396734800179307
  0.6713557146264040 -0.0000000000000000  0.4921792817885569
  0.7366182340109844 -0.0000000000000000  0.2138094003999311
  0.7342204198678668 -0.0000000000000000  0.3670278298937498
  0.7342423087801547 -0.0000000000000000  0.5197317411859482
  0.8242090983531943  0.3242091281444599  0.1864090333632929
  0.8283972320979788  0.3283972618892451  0.3396734800179307
  0.8286442257903386  0.3286442555816052  0.4921792817885569
  0.7633818256128095  0.2633818256082198  0.2138094003999311
  0.7657796397559271  0.2657796397513377  0.3670278298937498
  0.7657577508436392  0.2657577508390486  0.5197317411859482
  0.5000000000350795  0.1757908569795673  0.1864090333632929
  0.5000000000350795  0.1716027232347820  0.3396734800179307
  0.5000000000350795  0.1713557295424224  0.4921792817885569
  0.5000000000178204  0.2366181892913144  0.2138094003999311
  0.5000000000178204  0.2342203751481966  0.3670278298937498
  0.5000000000178204  0.2342422640604860  0.5197317411859482
  0.8287519167408230 -0.0000000000000000  0.2634661529861704
  0.8282975584759587 -0.0000000000000000  0.4158773231148430
  0.7657681003297672 -0.0000000000000000  0.2907577605887808
  0.7657378783826675 -0.0000000000000000  0.4432476760901980
  0.6712480236623197  0.1712480683402800  0.2634661529861704
  0.6717023819271841  0.1717024266051453  0.4158773231148430
  0.7342318997108972  0.2342318997243483  0.2907577605887808
  0.7342621216579969  0.2342621216714473  0.4432476760901980
  0.5000000000094005  0.3287519167051830  0.2634661529861704
  0.5000000000094005  0.3282975584403177  0.4158773231148430
  0.4999999999916724  0.2657681003267183  0.2907577605887808
  0.4999999999916724  0.2657378783796193  0.4432476760901980
  0.1672312362505528  0.5632318366153574  0.2961274318031662
  0.1670961464392844  0.5632489570225440  0.4485979488155299
  0.3960006003675411  0.8327687935494953  0.2961274318031662
  0.3961528105859947  0.8329038833607628  0.4485979488155299
  0.3327796870666911  0.4370131117064789  0.2192415560114186
  0.3328338220963553  0.4367478702421561  0.3723456059228339
  0.3328723508922736  0.4366156835306952  0.5253406609053117
  0.1042334470202215  0.6672203129435486  0.2192415560114186
  0.1039140705262345  0.6671661779138850  0.3723456059228339
  0.1037433550188541  0.6671276491179639  0.5253406609053117
  0.0629868957393765  0.8957666349481370  0.2192415560114186
  0.0632521372036996  0.8960860114421245  0.3723456059228339
  0.0633843239151601  0.8962567269495048  0.5253406609053117
  0.1672203278411920  0.6042334246775185  0.2192415560114186
  0.1671661928115282  0.6039140481835310  0.3723456059228339
  0.1671276640156085  0.6037433326761508  0.5253406609053117
  0.3957666051725812  0.5629868883170894  0.2192415560114186
  0.3960859816665687  0.5632521297814131  0.3723456059228339
  0.3962566971739486  0.5633843164928745  0.5253406609053117
  0.0632318068098874  0.6672312660761602  0.2961274318031662
  0.0632489272170739  0.6670961762648927  0.4485979488155299
  0.3327687935400890  0.8960006301923440  0.2961274318031662
  0.3329038833513563  0.8961528404107988  0.4485979488155299
  0.1039994219508623  0.4367681931837247  0.2961274318031662
  0.1038472117324084  0.4367510727765385  0.4485979488155299
  0.1757908569569010  0.4999999999725020  0.1864090333632929
  0.1716027232121157  0.4999999999725020  0.3396734800179307
  0.1713557295197561  0.4999999999725020  0.4921792817885569
  0.2366181892351318  0.4999999999725020  0.2138094003999311
  0.2342203750920140  0.4999999999725020  0.3670278298937498
  0.2342422640043033  0.4999999999725020  0.5197317411859482
  0.3242091579741524  0.8242091579710410  0.1864090333632930
  0.3283972917189376  0.8283972917158254  0.3396734800179307
  0.3286442854112977  0.8286442854081852  0.4921792817885569
  0.2633818256451467  0.7633818256592861  0.2138094003999311
  0.2657796397882646  0.7657796398024037  0.3670278298937498
  0.2657577508759755  0.7657577508901158  0.5197317411859482
  0.9999999999949480  0.6757909016546145  0.1864090333632929
  0.9999999999949480  0.6716027679098301  0.3396734800179307
  0.9999999999949480  0.6713557742174703  0.4921792817885569
  0.9999999999776890  0.7366182339663694  0.2138094003999311
  0.9999999999776890  0.7342204198232518  0.3670278298937498
  0.9999999999776890  0.7342423087355398  0.5197317411859482
  0.3287519465344563  0.4999999999725020  0.2634661529861704
  0.3282975882695910  0.4999999999725020  0.4158773231148430
  0.2657681300553716  0.4999999999725020  0.2907577605887808
  0.2657379081082726  0.4999999999725020  0.4432476760901980
  0.1712480832358919  0.6712480832398218  0.2634661529861704
  0.1717024415007572  0.6717024415046862  0.4158773231148430
  0.2342318997181594  0.7342319593264346  0.2907577605887808
  0.2342621216652585  0.7342621812735343  0.4432476760901980
  0.0000000000166622  0.8287519763072690  0.2634661529861704
  0.0000000000166622  0.8282976180424046  0.4158773231148430
  0.9999999999847233  0.7657681002992209  0.2907577605887808
  0.9999999999847233  0.7657378783521213  0.4432476760901980
  0.6672312660239211  0.5632318366153575  0.2961274318031662
  0.6670961762126536  0.5632489570225440  0.4485979488155299
  0.8960005705397447  0.8327687935494953  0.2961274318031662
  0.8961527807581995  0.8329038833607628  0.4485979488155299
  0.4367682527821451  0.6039994294333115  0.2961274318031662
  0.4367511323749589  0.6038472192148567  0.4485979488155299
  0.8327796870394766  0.4370131117064790  0.2192415560114186
  0.8328338220691401  0.4367478702421561  0.3723456059228339
  0.8328723508650613  0.4366156835306952  0.5253406609053117
  0.6042334246765948  0.6672203129435486  0.2192415560114186
  0.6039140481826073  0.6671661779138850  0.3723456059228339
  0.6037433326752271  0.6671276491179639  0.5253406609053117
  0.5629868882960360  0.8957666349481370  0.2192415560114186
  0.5632521297603598  0.8960860114421245  0.3723456059228339
  0.5633843164718211  0.8962567269495048  0.5253406609053117
  0.4370131713260452  0.8327797466821070  0.2192415560114186
  0.4367479298617222  0.8328338817117705  0.3723456059228339
  0.4366157431502614  0.8328724105076917  0.5253406609053117
  0.6672203129817189  0.6042334246775185  0.2192415560114186
  0.6671661779520554  0.6039140481835310  0.3723456059228339
  0.6671276491561342  0.6037433326761508  0.5253406609053117
  0.8957666349459485  0.5629868883170894  0.2192415560114186
  0.8960860114399360  0.5632521297814131  0.3723456059228339
  0.8962567269473165  0.5633843164928745  0.5253406609053117
  0.5632318366512895  0.6672312660761602  0.2961274318031662
  0.5632489570584759  0.6670961762648927  0.4485979488155299
  0.8327687935809084  0.8960006301923440  0.2961274318031662
  0.8329038833921759  0.8961528404107988  0.4485979488155299
  0.6039993698066541  0.4367681931837247  0.2961274318031662
  0.6038471595881993  0.4367510727765385  0.4485979488155299
  0.6757908420293924  0.4999999999725020  0.1864090333632929
  0.6716027082846080  0.4999999999725020  0.3396734800179307
  0.6713557145922482  0.4999999999725020  0.4921792817885569
  0.7366182339768286  0.4999999999725020  0.2138094003999311
  0.7342204198337110  0.4999999999725020  0.3670278298937498
  0.7342423087459989  0.4999999999725020  0.5197317411859482
  0.8242091579469394  0.8242091579710410  0.1864090333632929
  0.8283972916917238  0.8283972917158254  0.3396734800179307
  0.8286442853840836  0.8286442854081852  0.4921792817885569
  0.7633818256179326  0.7633818256592861  0.2138094003999311
  0.7657796397610501  0.7657796398024037  0.3670278298937498
  0.7657577508487622  0.7657577508901158  0.5197317411859482
  0.4999999999677343  0.6757909016546145  0.1864090333632929
  0.4999999999677343  0.6716027679098301  0.3396734800179307
  0.4999999999677343  0.6713557742174703  0.4921792817885569
  0.5000000000185167  0.7366182339663694  0.2138094003999311
  0.5000000000185167  0.7342204198232518  0.3670278298937498
  0.5000000000185167  0.7342423087355398  0.5197317411859482
  0.8287519167066602  0.4999999999725020  0.2634661529861704
  0.8282975584417958  0.4999999999725020  0.4158773231148430
  0.7657681002956114  0.4999999999725020  0.2907577605887808
  0.7657378783485117  0.4999999999725020  0.4432476760901980
  0.6712480832767131  0.6712480832398218  0.2634661529861704
  0.6717024415415775  0.6717024415046862  0.4158773231148430
  0.7342319592921083  0.7342319593264346  0.2907577605887808
  0.7342621812392079  0.7342621812735343  0.4432476760901980
  0.4999999999894484  0.8287519763072690  0.2634661529861704
  0.4999999999894484  0.8282976180424046  0.4158773231148430
  0.5000000000255511  0.7657681002992209  0.2907577605887808
  0.5000000000255511  0.7657378783521213  0.4432476760901980
  0.9367681633377396  0.1039994368457636  0.2961274318031662
  0.9367510429305533  0.1038472266273097  0.4485979488155299
  0.9370131117050795  0.3327797168555345  0.2192415560114186
  0.9367478702407558  0.3328338518851987  0.3723456059228339
  0.9366156835292945  0.3328723806811170  0.5253406609053117
  0.9367682230223845  0.6039994294333115  0.2961274318031662
  0.9367511026151980  0.6038472192148567  0.4485979488155299
  0.9370131116976685  0.8327797466821070  0.2192415560114186
  0.9367478702333448  0.8328338817117705  0.3723456059228339
  0.9366156835218835  0.8328724105076917  0.5253406609053117
  0.3327797168331098  0.9370131116789813  0.2192415560114186
  0.3328338518627739  0.9367478702146576  0.3723456059228339
  0.3328723806586922  0.9366156835031962  0.5253406609053117
  0.1039994443279065  0.9367682230102981  0.2961274318031662
  0.1038472341094526  0.9367511026031117  0.4485979488155299
  0.8327796870053137  0.9370131116789813  0.2192415560114186
  0.8328338220349772  0.9367478702146576  0.3723456059228339
  0.8328723508308984  0.9366156835031962  0.5253406609053117
  0.6039994294684408  0.9367682230102981  0.2961274318031662
  0.6038472192499860  0.9367511026031117  0.4485979488155299
  0.1708280363621062 -0.0000000000000000  0.2062355137271737
  0.1685862310765926 -0.0000000000000000  0.3597470600670591
  0.1683893293567170 -0.0000000000000000  0.5122670296660718
  0.1692611540049948 -0.0000000000000000  0.3030933394845942
  0.1690537271247618 -0.0000000000000000  0.4555793205320160
  0.3291719487807857  0.3291719487831447  0.2062355137271737
  0.3314137540663001  0.3314137540686591  0.3597470600670591
  0.3316106557861758  0.3316106557885348  0.5122670296660718
  0.3307388310894880  0.3307388311114722  0.3030933394845942
  0.3309462579697213  0.3309462579917055  0.4555793205320160
  0.0000000000234053  0.1708280363408823  0.2062355137271737
  0.0000000000234053  0.1685862310553687  0.3597470600670591
  0.0000000000234053  0.1683893293354931  0.5122670296660718
  0.0000000000037801  0.1692611540125550  0.3030933394845942
  0.0000000000037801  0.1690537271323219  0.4555793205320160
  0.3314861650653236 -0.0000000000000000  0.2835248179620729
  0.3313284290328985 -0.0000000000000000  0.4359488839128779
  0.3315624212531937 -0.0000000000000000  0.2266249187490965
  0.3308380680080236 -0.0000000000000000  0.3793118170887454
  0.3293172469072151 -0.0000000000000000  0.5314282970631272
  0.1685138498396105  0.1685138498034367  0.2835248179620729
  0.1686715858720358  0.1686715858358621  0.4359488839128779
  0.1684375489208725  0.1684375489227270  0.2266249187490965
  0.1691619021660428  0.1691619021678973  0.3793118170887454
  0.1706827232668511  0.1706827232687056  0.5314282970631272
  0.9999999999939035  0.3314861353205978  0.2835248179620729
  0.9999999999939035  0.3313283992881727  0.4359488839128779
  0.9999999999639826  0.3315624510497749  0.2266249187490965
  0.9999999999639826  0.3308380978046048  0.3793118170887455
  0.9999999999639826  0.3293172767037962  0.5314282970631272
  0.6708280512351794 -0.0000000000000000  0.2062355137271737
  0.6685862459496655 -0.0000000000000000  0.3597470600670591
  0.6683893442297906 -0.0000000000000000  0.5122670296660718
  0.6692611986786502 -0.0000000000000000  0.3030933394845942
  0.6690537717984165 -0.0000000000000000  0.4555793205320160
  0.8291719487535727  0.3291719487831447  0.2062355137271737
  0.8314137540390866  0.3314137540686591  0.3597470600670591
  0.8316106557589615  0.3316106557885348  0.5122670296660718
  0.8307388013297271  0.3307388311114722  0.3030933394845942
  0.8309462282099608  0.3309462579917055  0.4555793205320159
  0.4999999999961915  0.1708280363408823  0.2062355137271737
  0.4999999999961915  0.1685862310553687  0.3597470600670591
  0.4999999999961915  0.1683893293354931  0.5122670296660718
  0.5000000000446008  0.1692611540125550  0.3030933394845942
  0.5000000000446008  0.1690537271323219  0.4555793205320160
  0.8314861055049814 -0.0000000000000000  0.2835248179620729
  0.8313283694725555 -0.0000000000000000  0.4359488839128779
  0.8315624212940151 -0.0000000000000000  0.2266249187490965
  0.8308380680488446 -0.0000000000000000  0.3793118170887455
  0.8293172469480354 -0.0000000000000000  0.5314282970631272
  0.6685138349121023  0.1685138498034368  0.2835248179620729
  0.6686715709445281  0.1686715858358621  0.4359488839128779
  0.6684375786942396  0.1684375489227270  0.2266249187490965
  0.6691619319394100  0.1691619021678973  0.3793118170887454
  0.6706827530402193  0.1706827232687056  0.5314282970631272
  0.5000000000347313  0.3314861353205977  0.2835248179620729
  0.5000000000347313  0.3313283992881727  0.4359488839128779
  0.5000000000048033  0.3315624510497749  0.2266249187490965
  0.5000000000048033  0.3308380978046048  0.3793118170887454
  0.5000000000048033  0.3293172767037962  0.5314282970631272
  0.1708280363279433  0.4999999999725020  0.2062355137271737
  0.1685862310424297  0.4999999999725020  0.3597470600670591
  0.1683893293225541  0.4999999999725020  0.5122670296660718
  0.1692611539708319  0.4999999999725020  0.3030933394845942
  0.1690537270905989  0.4999999999725020  0.4555793205320160
  0.3291720083619967  0.8291720083852323  0.2062355137271737
  0.3314138136475112  0.8314138136707462  0.3597470600670591
  0.3316107153673868  0.8316107153906211  0.5122670296660718
  0.3307388311359006  0.8307388013084677  0.3030933394845942
  0.3309462580161340  0.8309462281887013  0.4555793205320160
  0.9999999999686011  0.6708280512404232  0.2062355137271737
  0.9999999999686011  0.6685862459549093  0.3597470600670591
  0.9999999999686011  0.6683893442350344  0.5122670296660718
  0.0000000000044764  0.6692611986876030  0.3030933394845942
  0.0000000000044764  0.6690537718073694  0.4555793205320160
  0.3314861650992023  0.4999999999725020  0.2835248179620729
  0.3313284290667772  0.4999999999725020  0.4359488839128779
  0.3315624510876540  0.4999999999725020  0.2266249187490965
  0.3308380978424838  0.4999999999725020  0.3793118170887454
  0.3293172767416753  0.4999999999725020  0.5314282970631272
  0.1685138646725596  0.6685138944784843  0.2835248179620729
  0.1686716007049849  0.6686716305109102  0.4359488839128779
  0.1684375340131672  0.6684375787493066  0.2266249187490965
  0.1691618872583375  0.6691619319944770  0.3793118170887454
  0.1706827083591458  0.6706827530952864  0.5314282970631272
  0.0000000000152482  0.8314861650686065  0.2835248179620729
  0.0000000000152482  0.8313284290361806  0.4359488839128779
  0.0000000000103952  0.8315624212467712  0.2266249187490965
  0.0000000000103952  0.8308380680016008  0.3793118170887454
  0.0000000000103952  0.8293172469007914  0.5314282970631272
  0.6708279915998605  0.4999999999725020  0.2062355137271737
  0.6685861863143466  0.4999999999725020  0.3597470600670591
  0.6683892845944717  0.4999999999725020  0.5122670296660718
  0.6692611986444873  0.4999999999725020  0.3030933394845942
  0.6690537717642536  0.4999999999725020  0.4555793205320160
  0.8291719487336207  0.8291720083852323  0.2062355137271737
  0.8314137540191345  0.8314138136707462  0.3597470600670591
  0.8316106557390095  0.8316107153906211  0.5122670296660718
  0.8307388013081053  0.8307388013084677  0.3030933394845942
  0.8309462281883390  0.8309462281887013  0.4555793205320159
  0.5000000000094218  0.6708280512404232  0.2062355137271737
  0.5000000000094218  0.6685862459549093  0.3597470600670591
  0.5000000000094218  0.6683893442350344  0.5122670296660718
  0.4999999999772626  0.6692611986876030  0.3030933394845942
  0.4999999999772626  0.6690537718073694  0.4555793205320161
  0.8314861054708256  0.4999999999725020  0.2835248179620729
  0.8313283694383997  0.4999999999725020  0.4359488839128779
  0.8315624212598522  0.4999999999725020  0.2266249187490965
  0.8308380680146819  0.4999999999725020  0.3793118170887454
  0.8293172469138725  0.4999999999725020  0.5314282970631272
  0.6685138349127986  0.6685138944784843  0.2835248179620729
  0.6686715709452244  0.6686716305109102  0.4359488839128779
  0.6684375787548631  0.6684375787493066  0.2266249187490965
  0.6691619320000335  0.6691619319944770  0.3793118170887454
  0.6706827531008428  0.6706827530952864  0.5314282970631272
  0.5000000595891976  0.8314861650686065  0.2835248179620729
  0.5000000595891976  0.8313284290361806  0.4359488839128779
  0.4999999999831815  0.8315624212467712  0.2266249187490965
  0.4999999999831815  0.8308380680016008  0.3793118170887454
  0.4999999999831815  0.8293172469007914  0.5314282970631272
 
  0.00000000E+00  0.00000000E+00  0.00000000E+00
  0.00000000E+00  0.00000000E+00  0.00000000E+00
  0.00000000E+00  0.00000000E+00  0.00000000E+00
  0.00000000E+00  0.00000000E+00  0.00000000E+00
  0.00000000E+00  0.00000000E+00  0.00000000E+00
  0.00000000E+00  0.00000000E+00  0.00000000E+00
  0.00000000E+00  0.00000000E+00  0.00000000E+00
  0.00000000E+00  0.00000000E+00  0.00000000E+00
  0.00000000E+00  0.00000000E+00  0.00000000E+00
  0.00000000E+00  0.00000000E+00  0.00000000E+00
  0.00000000E+00  0.00000000E+00  0.00000000E+00
  0.00000000E+00  0.00000000E+00  0.00000000E+00
  0.00000000E+00  0.00000000E+00  0.00000000E+00
  0.00000000E+00  0.00000000E+00  0.00000000E+00
  0.00000000E+00  0.00000000E+00  0.00000000E+00
  0.00000000E+00  0.00000000E+00  0.00000000E+00
  0.00000000E+00  0.00000000E+00  0.00000000E+00
  0.00000000E+00  0.00000000E+00  0.00000000E+00
  0.00000000E+00  0.00000000E+00  0.00000000E+00
  0.00000000E+00  0.00000000E+00  0.00000000E+00
  0.00000000E+00  0.00000000E+00  0.00000000E+00
  0.00000000E+00  0.00000000E+00  0.00000000E+00
  0.00000000E+00  0.00000000E+00  0.00000000E+00
  0.00000000E+00  0.00000000E+00  0.00000000E+00
  0.00000000E+00  0.00000000E+00  0.00000000E+00
  0.00000000E+00  0.00000000E+00  0.00000000E+00
  0.00000000E+00  0.00000000E+00  0.00000000E+00
  0.00000000E+00  0.00000000E+00  0.00000000E+00
  0.00000000E+00  0.00000000E+00  0.00000000E+00
  0.00000000E+00  0.00000000E+00  0.00000000E+00
  0.00000000E+00  0.00000000E+00  0.00000000E+00
  0.00000000E+00  0.00000000E+00  0.00000000E+00
  0.00000000E+00  0.00000000E+00  0.00000000E+00
  0.00000000E+00  0.00000000E+00  0.00000000E+00
  0.00000000E+00  0.00000000E+00  0.00000000E+00
  0.00000000E+00  0.00000000E+00  0.00000000E+00
  0.00000000E+00  0.00000000E+00  0.00000000E+00
  0.00000000E+00  0.00000000E+00  0.00000000E+00
  0.00000000E+00  0.00000000E+00  0.00000000E+00
  0.00000000E+00  0.00000000E+00  0.00000000E+00
  0.00000000E+00  0.00000000E+00  0.00000000E+00
  0.00000000E+00  0.00000000E+00  0.00000000E+00
  0.00000000E+00  0.00000000E+00  0.00000000E+00
  0.00000000E+00  0.00000000E+00  0.00000000E+00
  0.00000000E+00  0.00000000E+00  0.00000000E+00
  0.00000000E+00  0.00000000E+00  0.00000000E+00
  0.00000000E+00  0.00000000E+00  0.00000000E+00
  0.00000000E+00  0.00000000E+00  0.00000000E+00
  0.00000000E+00  0.00000000E+00  0.00000000E+00
  0.00000000E+00  0.00000000E+00  0.00000000E+00
  0.00000000E+00  0.00000000E+00  0.00000000E+00
  0.00000000E+00  0.00000000E+00  0.00000000E+00
  0.00000000E+00  0.00000000E+00  0.00000000E+00
  0.00000000E+00  0.00000000E+00  0.00000000E+00
  0.00000000E+00  0.00000000E+00  0.00000000E+00
  0.00000000E+00  0.00000000E+00  0.00000000E+00
  0.00000000E+00  0.00000000E+00  0.00000000E+00
  0.00000000E+00  0.00000000E+00  0.00000000E+00
  0.00000000E+00  0.00000000E+00  0.00000000E+00
  0.00000000E+00  0.00000000E+00  0.00000000E+00
  0.00000000E+00  0.00000000E+00  0.00000000E+00
  0.00000000E+00  0.00000000E+00  0.00000000E+00
  0.00000000E+00  0.00000000E+00  0.00000000E+00
  0.00000000E+00  0.00000000E+00  0.00000000E+00
  0.00000000E+00  0.00000000E+00  0.00000000E+00
  0.00000000E+00  0.00000000E+00  0.00000000E+00
  0.00000000E+00  0.00000000E+00  0.00000000E+00
  0.00000000E+00  0.00000000E+00  0.00000000E+00
  0.00000000E+00  0.00000000E+00  0.00000000E+00
  0.00000000E+00  0.00000000E+00  0.00000000E+00
  0.00000000E+00  0.00000000E+00  0.00000000E+00
  0.00000000E+00  0.00000000E+00  0.00000000E+00
  0.00000000E+00  0.00000000E+00  0.00000000E+00
  0.00000000E+00  0.00000000E+00  0.00000000E+00
  0.00000000E+00  0.00000000E+00  0.00000000E+00
  0.00000000E+00  0.00000000E+00  0.00000000E+00
  0.00000000E+00  0.00000000E+00  0.00000000E+00
  0.00000000E+00  0.00000000E+00  0.00000000E+00
  0.00000000E+00  0.00000000E+00  0.00000000E+00
  0.00000000E+00  0.00000000E+00  0.00000000E+00
  0.00000000E+00  0.00000000E+00  0.00000000E+00
  0.00000000E+00  0.00000000E+00  0.00000000E+00
  0.00000000E+00  0.00000000E+00  0.00000000E+00
  0.00000000E+00  0.00000000E+00  0.00000000E+00
  0.00000000E+00  0.00000000E+00  0.00000000E+00
  0.00000000E+00  0.00000000E+00  0.00000000E+00
  0.00000000E+00  0.00000000E+00  0.00000000E+00
  0.00000000E+00  0.00000000E+00  0.00000000E+00
  0.00000000E+00  0.00000000E+00  0.00000000E+00
  0.00000000E+00  0.00000000E+00  0.00000000E+00
  0.00000000E+00  0.00000000E+00  0.00000000E+00
  0.00000000E+00  0.00000000E+00  0.00000000E+00
  0.00000000E+00  0.00000000E+00  0.00000000E+00
  0.00000000E+00  0.00000000E+00  0.00000000E+00
  0.00000000E+00  0.00000000E+00  0.00000000E+00
  0.00000000E+00  0.00000000E+00  0.00000000E+00
  0.00000000E+00  0.00000000E+00  0.00000000E+00
  0.00000000E+00  0.00000000E+00  0.00000000E+00
  0.00000000E+00  0.00000000E+00  0.00000000E+00
  0.00000000E+00  0.00000000E+00  0.00000000E+00
  0.00000000E+00  0.00000000E+00  0.00000000E+00
  0.00000000E+00  0.00000000E+00  0.00000000E+00
  0.00000000E+00  0.00000000E+00  0.00000000E+00
  0.00000000E+00  0.00000000E+00  0.00000000E+00
  0.00000000E+00  0.00000000E+00  0.00000000E+00
  0.00000000E+00  0.00000000E+00  0.00000000E+00
  0.00000000E+00  0.00000000E+00  0.00000000E+00
  0.00000000E+00  0.00000000E+00  0.00000000E+00
  0.00000000E+00  0.00000000E+00  0.00000000E+00
  0.00000000E+00  0.00000000E+00  0.00000000E+00
  0.00000000E+00  0.00000000E+00  0.00000000E+00
  0.00000000E+00  0.00000000E+00  0.00000000E+00
  0.00000000E+00  0.00000000E+00  0.00000000E+00
  0.00000000E+00  0.00000000E+00  0.00000000E+00
  0.00000000E+00  0.00000000E+00  0.00000000E+00
  0.00000000E+00  0.00000000E+00  0.00000000E+00
  0.00000000E+00  0.00000000E+00  0.00000000E+00
  0.00000000E+00  0.00000000E+00  0.00000000E+00
  0.00000000E+00  0.00000000E+00  0.00000000E+00
  0.00000000E+00  0.00000000E+00  0.00000000E+00
  0.00000000E+00  0.00000000E+00  0.00000000E+00
  0.00000000E+00  0.00000000E+00  0.00000000E+00
  0.00000000E+00  0.00000000E+00  0.00000000E+00
  0.00000000E+00  0.00000000E+00  0.00000000E+00
  0.00000000E+00  0.00000000E+00  0.00000000E+00
  0.00000000E+00  0.00000000E+00  0.00000000E+00
  0.00000000E+00  0.00000000E+00  0.00000000E+00
  0.00000000E+00  0.00000000E+00  0.00000000E+00
  0.00000000E+00  0.00000000E+00  0.00000000E+00
  0.00000000E+00  0.00000000E+00  0.00000000E+00
  0.00000000E+00  0.00000000E+00  0.00000000E+00
  0.00000000E+00  0.00000000E+00  0.00000000E+00
  0.00000000E+00  0.00000000E+00  0.00000000E+00
  0.00000000E+00  0.00000000E+00  0.00000000E+00
  0.00000000E+00  0.00000000E+00  0.00000000E+00
  0.00000000E+00  0.00000000E+00  0.00000000E+00
  0.00000000E+00  0.00000000E+00  0.00000000E+00
  0.00000000E+00  0.00000000E+00  0.00000000E+00
  0.00000000E+00  0.00000000E+00  0.00000000E+00
  0.00000000E+00  0.00000000E+00  0.00000000E+00
  0.00000000E+00  0.00000000E+00  0.00000000E+00
  0.00000000E+00  0.00000000E+00  0.00000000E+00
  0.00000000E+00  0.00000000E+00  0.00000000E+00
  0.00000000E+00  0.00000000E+00  0.00000000E+00
  0.00000000E+00  0.00000000E+00  0.00000000E+00
  0.00000000E+00  0.00000000E+00  0.00000000E+00
  0.00000000E+00  0.00000000E+00  0.00000000E+00
  0.00000000E+00  0.00000000E+00  0.00000000E+00
  0.00000000E+00  0.00000000E+00  0.00000000E+00
  0.00000000E+00  0.00000000E+00  0.00000000E+00
  0.00000000E+00  0.00000000E+00  0.00000000E+00
  0.00000000E+00  0.00000000E+00  0.00000000E+00
  0.00000000E+00  0.00000000E+00  0.00000000E+00
  0.00000000E+00  0.00000000E+00  0.00000000E+00
  0.00000000E+00  0.00000000E+00  0.00000000E+00
  0.00000000E+00  0.00000000E+00  0.00000000E+00
  0.00000000E+00  0.00000000E+00  0.00000000E+00