au_111_4_layers_5x5_with_h2o_6_bilayers_
   1.00000000000000     
    14.6976995467999991    0.0000000000000000    0.0000000000000000
    -7.3488497733999996   12.7285811846999994    0.0000000000000000
     0.0000000000000000    0.0000000000000000   49.2004013061999999
   Au   H    O 
   100    96    48
Selective dynamics
Direct
  0.0000000000000000  0.0000000000000000  0.0000000000000000   F   F   F
  0.2680190086464265  0.1341562771909892  0.0471156822251686   T   T   T
  0.1323938802489906  0.2674943025589869  0.0941722239877834   T   T   T
  0.0000171875004114  0.0000221111956336  0.1403788376457769   T   T   T
  0.9999999999764526  0.2000000029901230  0.0000000000000000   F   F   F
  0.2657323718070757  0.3337885266481067  0.0475663962169648   T   T   T
  0.1338944216628093  0.0659372379514167  0.0937018900440947   T   T   T
  0.9993988530369862  0.2009038479359759  0.1418996641957975   T   T   T
  0.2000000030136633  0.2000000029901230  0.0000000000000000   F   F   F
  0.0663859422718076  0.3337541677395279  0.0471352619095669   T   T   T
  0.3330903564515140  0.0660615288056121  0.0944891360505196   T   T   T
  0.1983674897578709  0.1989043325537168  0.1401916943995403   T   T   T
  0.2000000029691691  0.0000000000000000  0.0000000000000000   F   F   F
  0.0676977921246475  0.1334866311749465  0.0471633251367933   T   T   T
  0.3340050199083393  0.2665611971522850  0.0940122065037841   T   T   T
  0.2014768493474293  0.0007429584626948  0.1419044911108287   T   T   T
  0.4000000059383453  0.0000000000000000  0.0000000000000000   F   F   F
  0.6668081052531178  0.1341802109761758  0.0471906269844098   T   T   T
  0.5342272249744369  0.2677835988102046  0.0943650705618069   T   T   T
  0.4011492766218581  0.9999679405197597  0.1414855157035078   T   T   T
  0.4000000059828395  0.2000000029901230  0.0000000000000000   F   F   F
  0.6666676450260169  0.3333411382211011  0.0471641890691430   T   T   T
  0.5347553124721145  0.0661018399496101  0.0947566456102322   T   T   T
  0.4005769566892852  0.2001697865168524  0.1412875393364033   T   T   T
  0.6000000238523029  0.2000000029901230  0.0000000000000000   F   F   F
  0.4673619325515048  0.3332142231043775  0.0471856090413212   T   T   T
  0.7334789082269992  0.0675184324130953  0.0940216903784972   T   T   T
  0.5998209781821657  0.2001152324706723  0.1419389299378935   T   T   T
  0.6000000238758432  0.0000000000000000  0.0000000000000000   F   F   F
  0.4667236745998906  0.1325905604541475  0.0479034978189858   T   T   T
  0.7322219305507716  0.2665224700103863  0.0943707973426413   T   T   T
  0.6011743530185001  0.9998988415129872  0.1423105087941678   T   T   T
  0.8000000119447250  0.0000000000000000  0.0000000000000000   F   F   F
  0.9339518748805347  0.2670853004508515  0.0944842673751012   T   T   T
  0.8012691826382579  0.9996802755421754  0.1401848471405600   T   T   T
  0.7999999523200216  0.2000000029901230  0.0000000000000000   F   F   F
  0.9341384972504727  0.0680162693757040  0.0936965089957198   T   T   T
  0.7998958966519680  0.2005295332913946  0.1412957132930046   T   T   T
  0.8674163956227687  0.3341761553456948  0.0479008781922445   T   T   T
  0.8658701747750825  0.1338942755201984  0.0471184808252829   T   T   T
  0.0000000000209468  0.4000000059802389  0.0000000000000000   F   F   F
  0.2681437312066706  0.5339170506068740  0.0475070272017817   T   T   T
  0.1332893873644352  0.6663402909286447  0.0947784208730198   T   T   T
  0.0000883850955020  0.4012837547693593  0.1414746088361625   T   T   T
  0.0000000000055138  0.6000000238188363  0.0000000000000000   F   F   F
  0.2657712359944640  0.7318838889681487  0.0475081053697863   T   T   T
  0.1329517246207530  0.4673264624694582  0.0938848217967063   T   T   T
  0.0001300180810517  0.6013201284849430  0.1423077251444624   T   T   T
  0.2000000178749772  0.6000000238188363  0.0000000000000000   F   F   F
  0.0680462267399946  0.7342915607029497  0.0475640865183848   T   T   T
  0.3337197419795856  0.4669922279474008  0.0947694805414585   T   T   T
  0.2000687606628304  0.5998825697433361  0.1419462342576949   T   T   T
  0.2000000029901230  0.4000000059802389  0.0000000000000000   F   F   F
  0.0659277664314288  0.5337386902158769  0.0472686456401021   T   T   T
  0.3333685426996809  0.6667025379750413  0.0948011637535444   T   T   T
  0.1992320372670804  0.4003971513599183  0.1412844729455287   T   T   T
  0.4000000059592921  0.4000000059802389  0.0000000000000000   F   F   F
  0.6658592351935511  0.5332958757924757  0.0478985128420177   T   T   T
  0.5327689494225822  0.6657057941932578  0.0938815734887157   T   T   T
  0.3987219642355697  0.3989136649909284  0.1422911717011246   T   T   T
  0.4000000357444407  0.6000000238188363  0.0000000000000000   F   F   F
  0.6662703397706835  0.7326649283913227  0.0471317678685210   T   T   T
  0.5313590656993057  0.4653059915394024  0.0947430654481636   T   T   T
  0.4003325095964669  0.6003578013183528  0.1419331940581117   T   T   T
  0.6000000238133225  0.6000000238188363  0.0000000000000000   F   F   F
  0.4661416617915677  0.7342926211435170  0.0475057258800575   T   T   T
  0.7335294897445550  0.4657904925919070  0.0943652731151019   T   T   T
  0.5988955843922525  0.5989275859659458  0.1414660267113277   T   T   T
  0.6000000238287555  0.4000000059802389  0.0000000000000000   F   F   F
  0.4662774054607013  0.5322156846745898  0.0472674542032863   T   T   T
  0.7330097626426380  0.6669638240563316  0.0944803433877723   T   T   T
  0.6002589840301553  0.4001879240865023  0.1419246973949839   T   T   T
  0.8000000118976374  0.4000000059802389  0.0000000000000000   F   F   F
  0.9325646402088665  0.6660149417471928  0.0940118332101179   T   T   T
  0.7999164432619423  0.3997652747790212  0.1419373954681902   T   T   T
  0.8000000118822044  0.6000000238188363  0.0000000000000000   F   F   F
  0.9339230253836917  0.4687000703957125  0.0947476925145310   T   T   T
  0.7995632439078051  0.5994489096138125  0.1412839930087486   T   T   T
  0.8661459233605697  0.7320231390969383  0.0471120840951258   T   T   T
  0.8658358195069056  0.5326692373455657  0.0471810960075700   T   T   T
  0.0000000000419007  0.8000000119604849  0.0000000000000000   F   F   F
  0.2673677530772238  0.9336205888737155  0.0471368175695872   T   T   T
  0.0005036705354371  0.8016704757030411  0.1401895261939714   T   T   T
  0.1350869091663540  0.8676400057609328  0.0941674911228390   T   T   T
  0.3343557644443251  0.8670847403455042  0.0938928194656654   T   T   T
  0.2000000030110698  0.8000000119604849  0.0000000000000000   F   F   F
  0.0657961695726499  0.9323539997298766  0.0471646240108186   T   T   T
  0.2010627115641626  0.8009389312822321  0.1412912228459788   T   T   T
  0.4000000059802389  0.8000000119604849  0.0000000000000000   F   F   F
  0.6662799442611274  0.9320325614473433  0.0475686918122804   T   T   T
  0.3998034454061639  0.7999892502483021  0.1419373425723904   T   T   T
  0.5330820295098349  0.8667825397295914  0.0947764782304219   T   T   T
  0.7326180595422827  0.8649804936434649  0.0941659399533350   T   T   T
  0.6000000238497023  0.8000000119604849  0.0000000000000000   F   F   F
  0.4678117466194749  0.9340914197932122  0.0472708150415642   T   T   T
  0.6000057832100794  0.7990810231071848  0.1412743463436001   T   T   T
  0.8000000119185842  0.8000000119604849  0.0000000000000000   F   F   F
  0.7993091991639503  0.7986036074683227  0.1419108984456798   T   T   T
  0.9320525387291880  0.8661292413006763  0.0936975294288729   T   T   T
  0.8665544905025371  0.9342402678040074  0.0471649582440250   T   T   T
  0.1719676664243011  0.0643223944078741  0.1984855891110016   T   T   T
  0.4011581341243513  0.3378368312461575  0.2035424948346076   T   T   T
  0.1055598414281533  0.1683237277458076  0.2736704259074472   T   T   T
  0.0622703325034379  0.3970170456901556  0.2797385901958407   T   T   T
  0.1683679913584655  0.1056196043391182  0.2736592906782533   T   T   T
  0.3970735462834654  0.0622150137784843  0.2797884690551911   T   T   T
  0.0639054077764740  0.1719382365838271  0.1984469402719498   T   T   T
  0.3378237689139070  0.4011765095881188  0.2034360976143788   T   T   T
  0.1675269480785602  0.0000698284526806  0.3072958929166063   T   T   T
  0.2364300079203616  0.9999579900247113  0.2816423288457699   T   T   T
  0.3025635586061313  0.3030508038426944  0.3136016838528235   T   T   T
  0.2593098945511016  0.2594037209517666  0.2834217432886277   T   T   T
  0.9999766671380357  0.1674303028475421  0.3073009420567132   T   T   T
  0.9998849972269284  0.2363412455413894  0.2816470292312729   T   T   T
  0.3346791899679857  0.9999531007839835  0.2338544995303806   T   T   T
  0.2737480365540890  0.0001649645049611  0.2064546071795661   T   T   T
  0.1751228200258836  0.1753188446147362  0.2294331887755163   T   T   T
  0.2389288274597448  0.2390451191480665  0.2027984297638596   T   T   T
  0.9996528827337841  0.3345363546188906  0.2338582227813220   T   T   T
  0.9996996989954354  0.2735469257427212  0.2064545532031730   T   T   T
  0.6619503375560072  0.0630906413157746  0.2035457989170339   T   T   T
  0.8914794309446492  0.3388435210264191  0.2027157924828842   T   T   T
  0.4471495242604959  0.1081895979798091  0.2027232894020656   T   T   T
  0.6066164010351258  0.1656285686019032  0.2840789871255396   T   T   T
  0.5592917018652486  0.3931521484782081  0.2840682048661947   T   T   T
  0.4328723101871788  0.3274992404163442  0.2839026220263037   T   T   T
  0.6725310491543581  0.1051004346982651  0.2839854818611514   T   T   T
  0.8945699680461203  0.0626955183628439  0.2736577893572019   T   T   T
  0.5723186302392520  0.1721720482069671  0.2066838113042806   T   T   T
  0.8273178787632460  0.3998791923261891  0.2066724498464083   T   T   T
  0.6973946115770886  0.9994322240309899  0.3136801826126430   T   T   T
  0.7409323347114736  0.9999083623814400  0.2834736656713730   T   T   T
  0.8351407276465110  0.3264800870836879  0.3155285927977118   T   T   T
  0.7667074947636365  0.2654343973746194  0.2889762184371989   T   T   T
  0.4910228476981544  0.1645233636055750  0.3155285426657031   T   T   T
  0.4986226983935325  0.2329802947845323  0.2889615253352815   T   T   T
  0.8247182624970151  0.9999377767634527  0.2294198837664183   T   T   T
  0.7609320502505952  0.9999016607459694  0.2027840090571402   T   T   T
  0.6775672438733409  0.1711036319362691  0.2393270404066783   T   T   T
  0.7370743390632342  0.2373179938071388  0.2117285863630372   T   T   T
  0.4938422908548006  0.3223920495778856  0.2392792459386897   T   T   T
  0.5003522505881790  0.2627824623542594  0.2116859744049080   T   T   T
  0.1718084084670508  0.5721283257102598  0.2064681698668807   T   T   T
  0.3999127970425462  0.8276177478835010  0.2064336723153559   T   T   T
  0.3276030125700728  0.4329535138143825  0.2837053190242642   T   T   T
  0.1051069534181153  0.6724130954933827  0.2838044897262932   T   T   T
  0.0627966375596145  0.8946155178803252  0.2736599877237467   T   T   T
  0.1656320767645667  0.6064989024631728  0.2838413527075332   T   T   T
  0.3932602962794363  0.5593641421752622  0.2838327214803726   T   T   T
  0.0629780503858015  0.6618638904589176  0.2034453216564103   T   T   T
  0.3389811629312902  0.8920107117754625  0.2026405106754225   T   T   T
  0.1076159238086163  0.4468389801481649  0.2026519916142533   T   T   T
  0.1651345952593886  0.4914608738287427  0.3153472964850152   T   T   T
  0.2332021496072372  0.4987070205892579  0.2887283153379130   T   T   T
  0.3264614288180923  0.8345469836466748  0.3153381099217967   T   T   T
  0.2653696179522314  0.7664946853927930  0.2887436684007625   T   T   T
  0.0004510995297480  0.6979104432120096  0.3136864720572490   T   T   T
  0.0001351851954254  0.7410159253585888  0.2834752542673229   T   T   T
  0.3223048998942488  0.4940259742010937  0.2390348645479037   T   T   T
  0.2625349790174738  0.5003241979959938  0.2114507435477435   T   T   T
  0.1712405350267971  0.6776212071174754  0.2391025196627794   T   T   T
  0.2373572113660956  0.7372657778423601  0.2115069183404827   T   T   T
  0.0003189530937462  0.8248520836359106  0.2294155555004807   T   T   T
  0.0000702584379226  0.7609761084404312  0.2027771072477762   T   T   T
  0.6610607779267212  0.5531408642111089  0.2027254686623010   T   T   T
  0.8927023599345176  0.8284212666065400  0.1984819733773904   T   T   T
  0.4280269403820043  0.5996307865121366  0.2063936631648389   T   T   T
  0.8341412404170399  0.4409422732656481  0.2840491206906961   T   T   T
  0.6028093605624960  0.6652723173272292  0.2798356278162544   T   T   T
  0.5673289968844273  0.8947822929519944  0.2837394207029149   T   T   T
  0.4408964526862960  0.8340971583441359  0.2837791522196440   T   T   T
  0.6652282190107357  0.6027677295462226  0.2798733779215112   T   T   T
  0.8948249130050030  0.5673941260925446  0.2839597130833411   T   T   T
  0.5534231834452328  0.6608405465716416  0.2026352752042087   T   T   T
  0.8285244675519721  0.8923496148403842  0.1984447122802848   T   T   T
  0.5997342562728036  0.4278674487704563  0.2066230522766332   T   T   T
  0.6735100326049661  0.5085362550471260  0.3155793150760857   T   T   T
  0.7345789994579022  0.5013604471830533  0.2890006730453223   T   T   T
  0.8327464356120444  0.8326488290041354  0.3073701541849303   T   T   T
  0.7636427809774560  0.7635707145699584  0.2817486357930576   T   T   T
  0.5080657379995799  0.6736539210143135  0.3154170700323888   T   T   T
  0.5012922432574598  0.7346491416842724  0.2887728141745924   T   T   T
  0.8282755592193496  0.5062446328534023  0.2392841598765827   T   T   T
  0.7620890250804919  0.4996513813083752  0.2116782838168447   T   T   T
  0.6657941919934203  0.6656936653175123  0.2339366165930556   T   T   T
  0.7269381443342127  0.7267315045339870  0.2065286092728442   T   T   T
  0.5061205322785227  0.8280626716316064  0.2390004121566136   T   T   T
  0.4997082203624998  0.7619727099319249  0.2114010358071710   T   T   T
  0.9358288951651019  0.1078088324911448  0.1984741919099093   T   T   T
  0.9373476219160679  0.3345898017823785  0.2797912072971513   T   T   T
  0.9363028628494945  0.5985722330067773  0.2035175014682977   T   T   T
  0.9372875922387038  0.8317790841350998  0.2736652406192732   T   T   T
  0.3345729363162278  0.9372912525460535  0.2797315134928553   T   T   T
  0.1081224133895731  0.9362380765673137  0.1984412013874390   T   T   T
  0.8318219610371713  0.9371867328295522  0.2736757450427234   T   T   T
  0.5986319581294026  0.9364099811888451  0.2034018362092098   T   T   T
  0.1685511316180808  0.0000668588349129  0.2874221088552673   T   T   T
  0.1768767791758563  0.0003694586026768  0.1938157739950910   T   T   T
  0.3197770436209169  0.3199372898455835  0.2944079746716923   T   T   T
  0.3415421307027771  0.3414490842067508  0.1946376713762987   T   T   T
  0.9999947707449621  0.1684647928921308  0.2874270171053155   T   T   T
  0.9998195831097405  0.1766412675262927  0.1938127600452759   T   T   T
  0.3386042418515132  0.9999954232200494  0.2138818954500223   T   T   T
  0.3345060207247457  0.9998236364309108  0.2716988293973799   T   T   T
  0.1723458418201957  0.1725695150865576  0.2093988588953977   T   T   T
  0.1716147007399158  0.1716499022515094  0.2670315625367223   T   T   T
  0.9996530903985246  0.3384600664356086  0.2138860010108559   T   T   T
  0.9997446681885336  0.3344222326388291  0.2717024940288724   T   T   T
  0.6804639992974444  0.9998384136461738  0.2944919876886232   T   T   T
  0.6583324097941343  0.9999032226222440  0.1946129527927738   T   T   T
  0.8336888268814917  0.3324792151542226  0.2957966837663761   T   T   T
  0.8223273933160868  0.3341699752746692  0.1990604407939855   T   T   T
  0.4984969575141847  0.1659232351943416  0.2957977158014558   T   T   T
  0.5116943704610861  0.1772764832897167  0.1990539359702055   T   T   T
  0.8274934098174000  0.9999955754245349  0.2093858325242408   T   T   T
  0.8285452674775442  0.9999245511290979  0.2670224631304521   T   T   T
  0.6742811906128949  0.1681955236723880  0.2193743550700162   T   T   T
  0.6727065511849233  0.1695371610136220  0.2773040177153874   T   T   T
  0.4941298140147126  0.3256418275077024  0.2193257316098780   T   T   T
  0.4970899541413232  0.3271563741055914  0.2772584039572052   T   T   T
  0.1661976846071624  0.4985938930173219  0.2956090322381328   T   T   T
  0.1766514561869812  0.5113156774951619  0.1988624488452757   T   T   T
  0.3323973635089530  0.8334205253113680  0.2955974649201920   T   T   T
  0.3342506197916109  0.8228912196484330  0.1988693239345025   T   T   T
  0.0001644674400154  0.6806097911859155  0.2945010189203146   T   T   T
  0.9995773964602535  0.6581336069097645  0.1946130261600203   T   T   T
  0.3255209276194080  0.4943412628256780  0.2190799048625962   T   T   T
  0.3273183999302560  0.4971378306911234  0.2770046439305389   T   T   T
  0.1683597049518895  0.6743536818091869  0.2191481263318380   T   T   T
  0.1694452715308401  0.6725455886276777  0.2770607475602915   T   T   T
  0.0004002025593124  0.8276530562542916  0.2093816647587730   T   T   T
  0.0000663196928841  0.8285667498293563  0.2670187072142767   T   T   T
  0.6675143419098504  0.5012117243418714  0.2958447854173443   T   T   T
  0.6654333509504298  0.4885430554267529  0.1989947371037459   T   T   T
  0.8315949883923324  0.8315160903461489  0.2874966213478842   T   T   T
  0.8238456994399144  0.8235570603192741  0.1938361387639418   T   T   T
  0.5011114982769627  0.6676345500966221  0.2956757418788527   T   T   T
  0.4888990159118549  0.6652321515736972  0.1987820938726230   T   T   T
  0.8310919430516819  0.5057240214585121  0.2193317146211058   T   T   T
  0.8303409106015280  0.5031846801453455  0.2772782481326388   T   T   T
  0.6619610935277649  0.6618376698841217  0.2139643080524252   T   T   T
  0.6654215529429806  0.6653716696526502  0.2718037147490833   T   T   T
  0.5055513120178503  0.8308578674161069  0.2190474952622097   T   T   T
  0.5031818188569588  0.8303817383575591  0.2770000292918908   T   T   T
 
  0.00000000E+00  0.00000000E+00  0.00000000E+00
  0.00000000E+00  0.00000000E+00  0.00000000E+00
  0.00000000E+00  0.00000000E+00  0.00000000E+00
  0.00000000E+00  0.00000000E+00  0.00000000E+00
  0.00000000E+00  0.00000000E+00  0.00000000E+00
  0.00000000E+00  0.00000000E+00  0.00000000E+00
  0.00000000E+00  0.00000000E+00  0.00000000E+00
  0.00000000E+00  0.00000000E+00  0.00000000E+00
  0.00000000E+00  0.00000000E+00  0.00000000E+00
  0.00000000E+00  0.00000000E+00  0.00000000E+00
  0.00000000E+00  0.00000000E+00  0.00000000E+00
  0.00000000E+00  0.00000000E+00  0.00000000E+00
  0.00000000E+00  0.00000000E+00  0.00000000E+00
  0.00000000E+00  0.00000000E+00  0.00000000E+00
  0.00000000E+00  0.00000000E+00  0.00000000E+00
  0.00000000E+00  0.00000000E+00  0.00000000E+00
  0.00000000E+00  0.00000000E+00  0.00000000E+00
  0.00000000E+00  0.00000000E+00  0.00000000E+00
  0.00000000E+00  0.00000000E+00  0.00000000E+00
  0.00000000E+00  0.00000000E+00  0.00000000E+00
  0.00000000E+00  0.00000000E+00  0.00000000E+00
  0.00000000E+00  0.00000000E+00  0.00000000E+00
  0.00000000E+00  0.00000000E+00  0.00000000E+00
  0.00000000E+00  0.00000000E+00  0.00000000E+00
  0.00000000E+00  0.00000000E+00  0.00000000E+00
  0.00000000E+00  0.00000000E+00  0.00000000E+00
  0.00000000E+00  0.00000000E+00  0.00000000E+00
  0.00000000E+00  0.00000000E+00  0.00000000E+00
  0.00000000E+00  0.00000000E+00  0.00000000E+00
  0.00000000E+00  0.00000000E+00  0.00000000E+00
  0.00000000E+00  0.00000000E+00  0.00000000E+00
  0.00000000E+00  0.00000000E+00  0.00000000E+00
  0.00000000E+00  0.00000000E+00  0.00000000E+00
  0.00000000E+00  0.00000000E+00  0.00000000E+00
  0.00000000E+00  0.00000000E+00  0.00000000E+00
  0.00000000E+00  0.00000000E+00  0.00000000E+00
  0.00000000E+00  0.00000000E+00  0.00000000E+00
  0.00000000E+00  0.00000000E+00  0.00000000E+00
  0.00000000E+00  0.00000000E+00  0.00000000E+00
  0.00000000E+00  0.00000000E+00  0.00000000E+00
  0.00000000E+00  0.00000000E+00  0.00000000E+00
  0.00000000E+00  0.00000000E+00  0.00000000E+00
  0.00000000E+00  0.00000000E+00  0.00000000E+00
  0.00000000E+00  0.00000000E+00  0.00000000E+00
  0.00000000E+00  0.00000000E+00  0.00000000E+00
  0.00000000E+00  0.00000000E+00  0.00000000E+00
  0.00000000E+00  0.00000000E+00  0.00000000E+00
  0.00000000E+00  0.00000000E+00  0.00000000E+00
  0.00000000E+00  0.00000000E+00  0.00000000E+00
  0.00000000E+00  0.00000000E+00  0.00000000E+00
  0.00000000E+00  0.00000000E+00  0.00000000E+00
  0.00000000E+00  0.00000000E+00  0.00000000E+00
  0.00000000E+00  0.00000000E+00  0.00000000E+00
  0.00000000E+00  0.00000000E+00  0.00000000E+00
  0.00000000E+00  0.00000000E+00  0.00000000E+00
  0.00000000E+00  0.00000000E+00  0.00000000E+00
  0.00000000E+00  0.00000000E+00  0.00000000E+00
  0.00000000E+00  0.00000000E+00  0.00000000E+00
  0.00000000E+00  0.00000000E+00  0.00000000E+00
  0.00000000E+00  0.00000000E+00  0.00000000E+00
  0.00000000E+00  0.00000000E+00  0.00000000E+00
  0.00000000E+00  0.00000000E+00  0.00000000E+00
  0.00000000E+00  0.00000000E+00  0.00000000E+00
  0.00000000E+00  0.00000000E+00  0.00000000E+00
  0.00000000E+00  0.00000000E+00  0.00000000E+00
  0.00000000E+00  0.00000000E+00  0.00000000E+00
  0.00000000E+00  0.00000000E+00  0.00000000E+00
  0.00000000E+00  0.00000000E+00  0.00000000E+00
  0.00000000E+00  0.00000000E+00  0.00000000E+00
  0.00000000E+00  0.00000000E+00  0.00000000E+00
  0.00000000E+00  0.00000000E+00  0.00000000E+00
  0.00000000E+00  0.00000000E+00  0.00000000E+00
  0.00000000E+00  0.00000000E+00  0.00000000E+00
  0.00000000E+00  0.00000000E+00  0.00000000E+00
  0.00000000E+00  0.00000000E+00  0.00000000E+00
  0.00000000E+00  0.00000000E+00  0.00000000E+00
  0.00000000E+00  0.00000000E+00  0.00000000E+00
  0.00000000E+00  0.00000000E+00  0.00000000E+00
  0.00000000E+00  0.00000000E+00  0.00000000E+00
  0.00000000E+00  0.00000000E+00  0.00000000E+00
  0.00000000E+00  0.00000000E+00  0.00000000E+00
  0.00000000E+00  0.00000000E+00  0.00000000E+00
  0.00000000E+00  0.00000000E+00  0.00000000E+00
  0.00000000E+00  0.00000000E+00  0.00000000E+00
  0.00000000E+00  0.00000000E+00  0.00000000E+00
  0.00000000E+00  0.00000000E+00  0.00000000E+00
  0.00000000E+00  0.00000000E+00  0.00000000E+00
  0.00000000E+00  0.00000000E+00  0.00000000E+00
  0.00000000E+00  0.00000000E+00  0.00000000E+00
  0.00000000E+00  0.00000000E+00  0.00000000E+00
  0.00000000E+00  0.00000000E+00  0.00000000E+00
  0.00000000E+00  0.00000000E+00  0.00000000E+00
  0.00000000E+00  0.00000000E+00  0.00000000E+00
  0.00000000E+00  0.00000000E+00  0.00000000E+00
  0.00000000E+00  0.00000000E+00  0.00000000E+00
  0.00000000E+00  0.00000000E+00  0.00000000E+00
  0.00000000E+00  0.00000000E+00  0.00000000E+00
  0.00000000E+00  0.00000000E+00  0.00000000E+00
  0.00000000E+00  0.00000000E+00  0.00000000E+00
  0.00000000E+00  0.00000000E+00  0.00000000E+00
  0.00000000E+00  0.00000000E+00  0.00000000E+00
  0.00000000E+00  0.00000000E+00  0.00000000E+00
  0.00000000E+00  0.00000000E+00  0.00000000E+00
  0.00000000E+00  0.00000000E+00  0.00000000E+00
  0.00000000E+00  0.00000000E+00  0.00000000E+00
  0.00000000E+00  0.00000000E+00  0.00000000E+00
  0.00000000E+00  0.00000000E+00  0.00000000E+00
  0.00000000E+00  0.00000000E+00  0.00000000E+00
  0.00000000E+00  0.00000000E+00  0.00000000E+00
  0.00000000E+00  0.00000000E+00  0.00000000E+00
  0.00000000E+00  0.00000000E+00  0.00000000E+00
  0.00000000E+00  0.00000000E+00  0.00000000E+00
  0.00000000E+00  0.00000000E+00  0.00000000E+00
  0.00000000E+00  0.00000000E+00  0.00000000E+00
  0.00000000E+00  0.00000000E+00  0.00000000E+00
  0.00000000E+00  0.00000000E+00  0.00000000E+00
  0.00000000E+00  0.00000000E+00  0.00000000E+00
  0.00000000E+00  0.00000000E+00  0.00000000E+00
  0.00000000E+00  0.00000000E+00  0.00000000E+00
  0.00000000E+00  0.00000000E+00  0.00000000E+00
  0.00000000E+00  0.00000000E+00  0.00000000E+00
  0.00000000E+00  0.00000000E+00  0.00000000E+00
  0.00000000E+00  0.00000000E+00  0.00000000E+00
  0.00000000E+00  0.00000000E+00  0.00000000E+00
  0.00000000E+00  0.00000000E+00  0.00000000E+00
  0.00000000E+00  0.00000000E+00  0.00000000E+00
  0.00000000E+00  0.00000000E+00  0.00000000E+00
  0.00000000E+00  0.00000000E+00  0.00000000E+00
  0.00000000E+00  0.00000000E+00  0.00000000E+00
  0.00000000E+00  0.00000000E+00  0.00000000E+00
  0.00000000E+00  0.00000000E+00  0.00000000E+00
  0.00000000E+00  0.00000000E+00  0.00000000E+00
  0.00000000E+00  0.00000000E+00  0.00000000E+00
  0.00000000E+00  0.00000000E+00  0.00000000E+00
  0.00000000E+00  0.00000000E+00  0.00000000E+00
  0.00000000E+00  0.00000000E+00  0.00000000E+00
  0.00000000E+00  0.00000000E+00  0.00000000E+00
  0.00000000E+00  0.00000000E+00  0.00000000E+00
  0.00000000E+00  0.00000000E+00  0.00000000E+00
  0.00000000E+00  0.00000000E+00  0.00000000E+00
  0.00000000E+00  0.00000000E+00  0.00000000E+00
  0.00000000E+00  0.00000000E+00  0.00000000E+00
  0.00000000E+00  0.00000000E+00  0.00000000E+00
  0.00000000E+00  0.00000000E+00  0.00000000E+00
  0.00000000E+00  0.00000000E+00  0.00000000E+00
  0.00000000E+00  0.00000000E+00  0.00000000E+00
  0.00000000E+00  0.00000000E+00  0.00000000E+00
  0.00000000E+00  0.00000000E+00  0.00000000E+00
  0.00000000E+00  0.00000000E+00  0.00000000E+00
  0.00000000E+00  0.00000000E+00  0.00000000E+00
  0.00000000E+00  0.00000000E+00  0.00000000E+00
  0.00000000E+00  0.00000000E+00  0.00000000E+00
  0.00000000E+00  0.00000000E+00  0.00000000E+00
  0.00000000E+00  0.00000000E+00  0.00000000E+00
  0.00000000E+00  0.00000000E+00  0.00000000E+00
  0.00000000E+00  0.00000000E+00  0.00000000E+00
  0.00000000E+00  0.00000000E+00  0.00000000E+00
  0.00000000E+00  0.00000000E+00  0.00000000E+00
  0.00000000E+00  0.00000000E+00  0.00000000E+00
  0.00000000E+00  0.00000000E+00  0.00000000E+00
  0.00000000E+00  0.00000000E+00  0.00000000E+00
  0.00000000E+00  0.00000000E+00  0.00000000E+00
  0.00000000E+00  0.00000000E+00  0.00000000E+00
  0.00000000E+00  0.00000000E+00  0.00000000E+00
  0.00000000E+00  0.00000000E+00  0.00000000E+00
  0.00000000E+00  0.00000000E+00  0.00000000E+00
  0.00000000E+00  0.00000000E+00  0.00000000E+00
  0.00000000E+00  0.00000000E+00  0.00000000E+00
  0.00000000E+00  0.00000000E+00  0.00000000E+00
  0.00000000E+00  0.00000000E+00  0.00000000E+00
  0.00000000E+00  0.00000000E+00  0.00000000E+00
  0.00000000E+00  0.00000000E+00  0.00000000E+00
  0.00000000E+00  0.00000000E+00  0.00000000E+00
  0.00000000E+00  0.00000000E+00  0.00000000E+00
  0.00000000E+00  0.00000000E+00  0.00000000E+00
  0.00000000E+00  0.00000000E+00  0.00000000E+00
  0.00000000E+00  0.00000000E+00  0.00000000E+00
  0.00000000E+00  0.00000000E+00  0.00000000E+00
  0.00000000E+00  0.00000000E+00  0.00000000E+00
  0.00000000E+00  0.00000000E+00  0.00000000E+00
  0.00000000E+00  0.00000000E+00  0.00000000E+00
  0.00000000E+00  0.00000000E+00  0.00000000E+00
  0.00000000E+00  0.00000000E+00  0.00000000E+00
  0.00000000E+00  0.00000000E+00  0.00000000E+00
  0.00000000E+00  0.00000000E+00  0.00000000E+00
  0.00000000E+00  0.00000000E+00  0.00000000E+00
  0.00000000E+00  0.00000000E+00  0.00000000E+00
  0.00000000E+00  0.00000000E+00  0.00000000E+00
  0.00000000E+00  0.00000000E+00  0.00000000E+00
  0.00000000E+00  0.00000000E+00  0.00000000E+00
  0.00000000E+00  0.00000000E+00  0.00000000E+00
  0.00000000E+00  0.00000000E+00  0.00000000E+00
  0.00000000E+00  0.00000000E+00  0.00000000E+00
  0.00000000E+00  0.00000000E+00  0.00000000E+00
  0.00000000E+00  0.00000000E+00  0.00000000E+00
  0.00000000E+00  0.00000000E+00  0.00000000E+00
  0.00000000E+00  0.00000000E+00  0.00000000E+00
  0.00000000E+00  0.00000000E+00  0.00000000E+00
  0.00000000E+00  0.00000000E+00  0.00000000E+00
  0.00000000E+00  0.00000000E+00  0.00000000E+00
  0.00000000E+00  0.00000000E+00  0.00000000E+00
  0.00000000E+00  0.00000000E+00  0.00000000E+00
  0.00000000E+00  0.00000000E+00  0.00000000E+00
  0.00000000E+00  0.00000000E+00  0.00000000E+00
  0.00000000E+00  0.00000000E+00  0.00000000E+00
  0.00000000E+00  0.00000000E+00  0.00000000E+00
  0.00000000E+00  0.00000000E+00  0.00000000E+00
  0.00000000E+00  0.00000000E+00  0.00000000E+00
  0.00000000E+00  0.00000000E+00  0.00000000E+00
  0.00000000E+00  0.00000000E+00  0.00000000E+00
  0.00000000E+00  0.00000000E+00  0.00000000E+00
  0.00000000E+00  0.00000000E+00  0.00000000E+00
  0.00000000E+00  0.00000000E+00  0.00000000E+00
  0.00000000E+00  0.00000000E+00  0.00000000E+00
  0.00000000E+00  0.00000000E+00  0.00000000E+00
  0.00000000E+00  0.00000000E+00  0.00000000E+00
  0.00000000E+00  0.00000000E+00  0.00000000E+00
  0.00000000E+00  0.00000000E+00  0.00000000E+00
  0.00000000E+00  0.00000000E+00  0.00000000E+00
  0.00000000E+00  0.00000000E+00  0.00000000E+00
  0.00000000E+00  0.00000000E+00  0.00000000E+00
  0.00000000E+00  0.00000000E+00  0.00000000E+00
  0.00000000E+00  0.00000000E+00  0.00000000E+00
  0.00000000E+00  0.00000000E+00  0.00000000E+00
  0.00000000E+00  0.00000000E+00  0.00000000E+00
  0.00000000E+00  0.00000000E+00  0.00000000E+00
  0.00000000E+00  0.00000000E+00  0.00000000E+00
  0.00000000E+00  0.00000000E+00  0.00000000E+00
  0.00000000E+00  0.00000000E+00  0.00000000E+00
  0.00000000E+00  0.00000000E+00  0.00000000E+00
  0.00000000E+00  0.00000000E+00  0.00000000E+00
  0.00000000E+00  0.00000000E+00  0.00000000E+00
  0.00000000E+00  0.00000000E+00  0.00000000E+00
  0.00000000E+00  0.00000000E+00  0.00000000E+00
  0.00000000E+00  0.00000000E+00  0.00000000E+00
  0.00000000E+00  0.00000000E+00  0.00000000E+00
  0.00000000E+00  0.00000000E+00  0.00000000E+00
  0.00000000E+00  0.00000000E+00  0.00000000E+00
  0.00000000E+00  0.00000000E+00  0.00000000E+00
  0.00000000E+00  0.00000000E+00  0.00000000E+00
  0.00000000E+00  0.00000000E+00  0.00000000E+00