au_111_4_layers_5x5_with_h2o_6_bilayers_
   1.00000000000000     
    14.6976995467999991    0.0000000000000000    0.0000000000000000
    -7.3488497733999996   12.7285811846999994    0.0000000000000000
     0.0000000000000000    0.0000000000000000   49.2004013061999999
   Au   H    O 
   100   192    96
Selective dynamics
Direct
  0.0000000000000000  0.0000000000000000  0.0000000000000000   F   F   F
  0.2664929496291251  0.1334028218888008  0.0474740464164469   T   T   T
  0.1336555963368085  0.2665058354667806  0.0943173328528459   T   T   T
  0.9999617813207280  0.9999806975778256  0.1428077149810179   T   T   T
  0.9999999999764526  0.2000000029901230  0.0000000000000000   F   F   F
  0.2670773437196061  0.3335163371560057  0.0474073816010119   T   T   T
  0.1327322478475992  0.0665495538463929  0.0944228359392270   T   T   T
  0.0003406327613575  0.2001072526971015  0.1417858457531906   T   T   T
  0.2000000030136633  0.2000000029901230  0.0000000000000000   F   F   F
  0.0668140387322183  0.3333982488838956  0.0475087942416579   T   T   T
  0.3332221776395556  0.0669700852496149  0.0942755186474997   T   T   T
  0.1992853500107543  0.1990433049423075  0.1425078576996341   T   T   T
  0.2000000029691691  0.0000000000000000  0.0000000000000000   F   F   F
  0.0665165372790923  0.1334522560757421  0.0474220251260462   T   T   T
  0.3328002009889346  0.2667146578356707  0.0944832602245427   T   T   T
  0.1998609266286877  0.9997605781018706  0.1417964996977048   T   T   T
  0.4000000059383453  0.0000000000000000  0.0000000000000000   F   F   F
  0.6665585917581751  0.1332511443124460  0.0475265931084508   T   T   T
  0.5327361255506275  0.2663690006848398  0.0944202525402602   T   T   T
  0.3988631801690730  0.0000809056917959  0.1422394138330247   T   T   T
  0.4000000059828395  0.2000000029901230  0.0000000000000000   F   F   F
  0.6666146017670513  0.3332839599455752  0.0476333408488259   T   T   T
  0.5323878446614003  0.0666717061830511  0.0942806137804695   T   T   T
  0.3989981574889825  0.2004000796904108  0.1422698120728683   T   T   T
  0.6000000238523029  0.2000000029901230  0.0000000000000000   F   F   F
  0.4666625499516783  0.3333880756086600  0.0475279706615552   T   T   T
  0.7332543228578814  0.0660960346878596  0.0944870337973356   T   T   T
  0.6006473889056352  0.2003139456648952  0.1419439526298945   T   T   T
  0.6000000238758432  0.0000000000000000  0.0000000000000000   F   F   F
  0.4667699269155676  0.1336534275667915  0.0473117007534043   T   T   T
  0.7336052929025101  0.2663258452136148  0.0944165380033226   T   T   T
  0.5984381184728704  0.0000700620100034  0.1417216592268744   T   T   T
  0.8000000119447250  0.0000000000000000  0.0000000000000000   F   F   F
  0.9330338801529194  0.2662495652163486  0.0942668203223889   T   T   T
  0.8009377555507982  0.0002609790006503  0.1425294198285556   T   T   T
  0.7999999523200216  0.2000000029901230  0.0000000000000000   F   F   F
  0.9333611520456486  0.0661696680744583  0.0944215478687340   T   T   T
  0.7997574745803959  0.1987037259992093  0.1422588217331580   T   T   T
  0.8662812118989578  0.3330922945825847  0.0473062600899965   T   T   T
  0.8665434297777139  0.1330941186046530  0.0474722639822645   T   T   T
  0.0000000000209468  0.4000000059802389  0.0000000000000000   F   F   F
  0.2664239280919531  0.5332146684334376  0.0474288458244914   T   T   T
  0.1336109232537197  0.6667161892926003  0.0942622977756642   T   T   T
  0.9999901821434705  0.3988010354271339  0.1422299903595530   T   T   T
  0.0000000000055138  0.6000000238188363  0.0000000000000000   F   F   F
  0.2667996055048505  0.7335797135096129  0.0474252479219928   T   T   T
  0.1334946250916644  0.4663428745887401  0.0946045177499073   T   T   T
  0.9999825404294285  0.5983084584524576  0.1417010861857548   T   T   T
  0.2000000178749772  0.6000000238188363  0.0000000000000000   F   F   F
  0.0664247800360656  0.7328812996252410  0.0474105397690465   T   T   T
  0.3333058073347814  0.4669018919003847  0.0942677754191905   T   T   T
  0.2004383886132217  0.6007525318397384  0.1420024334892318   T   T   T
  0.2000000029901230  0.4000000059802389  0.0000000000000000   F   F   F
  0.0667466395556815  0.5330119404086417  0.0474766612176438   T   T   T
  0.3333993168573244  0.6667406057227225  0.0942761726704049   T   T   T
  0.2007407877211023  0.3989446266052497  0.1422879417800829   T   T   T
  0.4000000059592921  0.4000000059802389  0.0000000000000000   F   F   F
  0.6668904652499137  0.5331796619096920  0.0473084667215673   T   T   T
  0.5336803213803947  0.6671478405704221  0.0946064248137404   T   T   T
  0.4016939193179141  0.4016526698941050  0.1417032191491643   T   T   T
  0.4000000357444407  0.6000000238188363  0.0000000000000000   F   F   F
  0.6666367221142977  0.7334318524917123  0.0475177208787443   T   T   T
  0.5342884778650685  0.4675823890360604  0.0942731375643788   T   T   T
  0.3993639429534426  0.5997554426448417  0.1420119348309044   T   T   T
  0.6000000238133225  0.6000000238188363  0.0000000000000000   F   F   F
  0.4667934014487756  0.7332158774562458  0.0474272128497120   T   T   T
  0.7336394624581573  0.4672249911782131  0.0944089771379240   T   T   T
  0.6012164082772742  0.6011481638986140  0.1422401911707993   T   T   T
  0.6000000238287555  0.4000000059802389  0.0000000000000000   F   F   F
  0.4669859514447054  0.5337289217728696  0.0474774416834478   T   T   T
  0.7337279239179182  0.6667294863147006  0.0942826909212897   T   T   T
  0.5997038034116784  0.3993713046028944  0.1419444220751842   T   T   T
  0.8000000118976374  0.4000000059802389  0.0000000000000000   F   F   F
  0.9339426860586997  0.6671123332168136  0.0944914944123028   T   T   T
  0.7997153663775265  0.4003365674390622  0.1419432515759738   T   T   T
  0.8000000118822044  0.6000000238188363  0.0000000000000000   F   F   F
  0.9333216783770624  0.4656514282181590  0.0942743191337811   T   T   T
  0.8013629868824594  0.6010079204913197  0.1422621264957087   T   T   T
  0.8669035311413538  0.7334329392700809  0.0474788310856127   T   T   T
  0.8667166523206760  0.5332912356141151  0.0475225469958787   T   T   T
  0.0000000000419007  0.8000000119604849  0.0000000000000000   F   F   F
  0.2665381773377433  0.9331449425311575  0.0475196488747898   T   T   T
  0.9997581821087778  0.8007231177119607  0.1425264651204898   T   T   T
  0.1328321852129619  0.8663339739229983  0.0943296405411971   T   T   T
  0.3328592073779646  0.8665377029856458  0.0946081868491149   T   T   T
  0.2000000030110698  0.8000000119604849  0.0000000000000000   F   F   F
  0.0668962729704319  0.9334174991410080  0.0474295162663267   T   T   T
  0.1981689920575462  0.7993206852051316  0.1422945740256054   T   T   T
  0.4000000059802389  0.8000000119604849  0.0000000000000000   F   F   F
  0.6664636132084283  0.9335536708850611  0.0474049552607170   T   T   T
  0.4003531443849653  0.7997216905563320  0.1420107382446645   T   T   T
  0.5332238545412054  0.8664482005141352  0.0942736375130693   T   T   T
  0.7335193409597238  0.8671382059633785  0.0943228901912576   T   T   T
  0.6000000238497023  0.8000000119604849  0.0000000000000000   F   F   F
  0.4662692359170748  0.9332379759377005  0.0474842613548674   T   T   T
  0.6011237983896791  0.8018123212491801  0.1422990452325337   T   T   T
  0.8000000119185842  0.8000000119604849  0.0000000000000000   F   F   F
  0.7998908973173897  0.8001821529902244  0.1418123976618801   T   T   T
  0.9337370813916905  0.8671082648147959  0.0944291492664036   T   T   T
  0.8665424522286429  0.9330574075980707  0.0474198492609403   T   T   T
  0.1672679232197538  0.0632883025643380  0.2955994531538551   T   T   T
  0.1671410813297314  0.0633580457613974  0.4481406975415538   T   T   T
  0.3971285985733530  0.3339714493230090  0.2946409767474520   T   T   T
  0.3970593724612925  0.3336236149883121  0.4473749512526410   T   T   T
  0.1041174773146309  0.1673034616534750  0.2197760545162950   T   T   T
  0.1038534455321098  0.1670144501049649  0.3716599346480791   T   T   T
  0.0632931613683212  0.3944522275752504  0.2184030614376766   T   T   T
  0.0631480666766180  0.3963765057278792  0.3708603024568120   T   T   T
  0.1672991290866364  0.1041354382764865  0.2197712054309235   T   T   T
  0.1670356746788997  0.1038384278477835  0.3716567047289132   T   T   T
  0.3943873710048962  0.0632340268264926  0.2183993142448486   T   T   T
  0.3964226949266632  0.0631297930976018  0.3708495978959476   T   T   T
  0.0633081276868452  0.1672587678557917  0.2956024304255962   T   T   T
  0.0633712759627301  0.1671324077329501  0.4481420870944106   T   T   T
  0.3339972582567086  0.3971239793252153  0.2946475344625412   T   T   T
  0.3336688777154677  0.3970142240750079  0.4473853007485431   T   T   T
  0.1678157054512823  0.9995989271949810  0.1876699902168113   T   T   T
  0.1706240232207392  0.9999010988005423  0.3387277391830850   T   T   T
  0.2338272155595433  0.9998168243334860  0.2141656489486934   T   T   T
  0.2336006728044424  0.9999253796688805  0.3659499208881201   T   T   T
  0.3238760844111113  0.3242132178870492  0.1864489101129649   T   T   T
  0.3287512176505132  0.3287544194694760  0.3381508098220891   T   T   T
  0.2635631536311820  0.2636287312791410  0.2140287952974376   T   T   T
  0.2661914389433306  0.2661888146060463  0.3656396942843685   T   T   T
  0.9996678257920451  0.1679126384320071  0.1876677874346200   T   T   T
  0.9999233899224507  0.1706190364991400  0.3387342169168264   T   T   T
  0.9998399638473998  0.2338871330431829  0.2141659600236281   T   T   T
  0.9999232548147532  0.2335755562198898  0.3659582897917701   T   T   T
  0.3283828173261654  0.0001104182130121  0.2620287194600834   T   T   T
  0.3290549247328798  0.0000098091096277  0.4142640296091216   T   T   T
  0.2662439577507385  0.0000823467887656  0.2895632601110165   T   T   T
  0.2662417361884977  0.9999618449736971  0.4419506630081642   T   T   T
  0.1708107911551267  0.1708021814206475  0.2629219383022630   T   T   T
  0.1706050594578059  0.1705911156455286  0.4149282022201390   T   T   T
  0.2341317895655735  0.2341164217799871  0.2900549202008094   T   T   T
  0.2339296828754982  0.2339014500521941  0.4423640341857364   T   T   T
  0.0001524317563764  0.3284144461008154  0.2620409522729545   T   T   T
  0.9999838093313116  0.3290170785671691  0.4142684468272009   T   T   T
  0.0001028587482566  0.2662474681684870  0.2895717810106859   T   T   T
  0.9999497586023480  0.2662147670932882  0.4419557461685244   T   T   T
  0.6662072888313020  0.0632599243411534  0.2946460847272547   T   T   T
  0.6663025264833777  0.0632954288942074  0.4473888939057531   T   T   T
  0.8960514077871125  0.3327203716114795  0.2945237252796176   T   T   T
  0.8963689949693219  0.3330381450423232  0.4471909280787116   T   T   T
  0.4368054121501501  0.1042489455538558  0.2945099186636284   T   T   T
  0.4366314755851874  0.1036096757302616  0.4471999629937358   T   T   T
  0.6029174209327479  0.1666399587168428  0.2176510377797456   T   T   T
  0.6034637816915591  0.1669164612994223  0.3705477612781749   T   T   T
  0.5635208119359589  0.3969751325997706  0.2176285972866197   T   T   T
  0.5633824589246430  0.3963840883315086  0.3705423073577947   T   T   T
  0.4368667919997691  0.3332210539120837  0.2178148768186929   T   T   T
  0.4368618013878987  0.3330761445499633  0.3707364878307189   T   T   T
  0.6666114010547091  0.1037094381460761  0.2178286399722893   T   T   T
  0.6667643286149811  0.1036963835768603  0.3707344241191564   T   T   T
  0.8952977210465676  0.0630089074247664  0.2197763190069395   T   T   T
  0.8959697778556119  0.0630858189778962  0.3716517124874841   T   T   T
  0.5632272744648219  0.1674146079604455  0.2942930148701421   T   T   T
  0.5635806655590372  0.1669971524268590  0.4470175488214778   T   T   T
  0.8328780243929756  0.3959669286899654  0.2942895962746022   T   T   T
  0.8329520120542071  0.3965806121416193  0.4469986449967323   T   T   T
  0.6754408016865980  0.9997002009721143  0.1864645235911695   T   T   T
  0.6711899866944933  0.9999950152477766  0.3381605807645442   T   T   T
  0.7359951164338980  0.9998765948813286  0.2140510650986656   T   T   T
  0.7336724538878983  0.9999261997830118  0.3656557641928941   T   T   T
  0.8299864487559105  0.3258514513922606  0.1858895318016067   T   T   T
  0.8289636708237751  0.3288156017373680  0.3376729869341375   T   T   T
  0.7642358517965349  0.2636453047305167  0.2127096840397513   T   T   T
  0.7662685321594438  0.2662416645513588  0.3650295220692996   T   T   T
  0.4958245771698273  0.1700426998341840  0.1858876737156692   T   T   T
  0.4998640285834384  0.1710609340936955  0.3376680273314463   T   T   T
  0.4992974968122326  0.2357481268543324  0.2127117244994352   T   T   T
  0.4999276230639893  0.2336526794736287  0.3650371498038680   T   T   T
  0.8290920091310525  0.9999633272645951  0.2629234669854554   T   T   T
  0.8292767837824968  0.9999461243329222  0.4149157927398264   T   T   T
  0.7659573947832357  0.0000442272644321  0.2900768705614709   T   T   T
  0.7659684171121768  0.9999244254323685  0.4423621772250570   T   T   T
  0.6702242634631332  0.1705377792317364  0.2613242927297748   T   T   T
  0.6703837206636507  0.1703659236794550  0.4138089958227766   T   T   T
  0.7334421911951949  0.2335279903515115  0.2886261545671047   T   T   T
  0.7335699292751130  0.2335854757382450  0.4413408512738286   T   T   T
  0.5002738852075623  0.3298709922467751  0.2613197647986070   T   T   T
  0.4999775393137824  0.3294887249163025  0.4138074489346906   T   T   T
  0.5001644362204658  0.2667459014887257  0.2886303960389753   T   T   T
  0.5000150837829338  0.2663150813240023  0.4413505870410859   T   T   T
  0.1674457744056639  0.5632212869866393  0.2943264300234389   T   T   T
  0.1670031371174048  0.5635459080201670  0.4470224499995012   T   T   T
  0.3959773518201146  0.8328936430788616  0.2943220987838728   T   T   T
  0.3965640077489994  0.8329492104314795  0.4470119354262465   T   T   T
  0.3332497957496443  0.4369196165584341  0.2178753513852385   T   T   T
  0.3331315580263094  0.4368729657884671  0.3707491688931199   T   T   T
  0.1036832137243167  0.6665952805332296  0.2178871313612731   T   T   T
  0.1036862271150483  0.6666733684122761  0.3707450298862511   T   T   T
  0.0629598385549883  0.8953185034972577  0.2197856389854564   T   T   T
  0.0631117401708963  0.8959627095937037  0.3716531471613891   T   T   T
  0.1666126765865101  0.6028917118307930  0.2177114068397401   T   T   T
  0.1669067180711679  0.6033687976075015  0.3705646868187316   T   T   T
  0.3970038442126480  0.5635942375341259  0.2176927375274360   T   T   T
  0.3964359674204658  0.5633945508314326  0.3705590783116719   T   T   T
  0.0632248182349358  0.6661761804851309  0.2946657433108086   T   T   T
  0.0632623146187186  0.6662723987613290  0.4474010307519762   T   T   T
  0.3327157648694552  0.8960572435557239  0.2945310112933655   T   T   T
  0.3330309180180890  0.8963713982533363  0.4471928522226136   T   T   T
  0.1042826308649936  0.4367939760524209  0.2945251207795891   T   T   T
  0.1036049300675188  0.4365897525647213  0.4471921604124915   T   T   T
  0.1703963482889179  0.4961420245899362  0.1859173912157388   T   T   T
  0.1710935086028869  0.4997950225321972  0.3376819753808959   T   T   T
  0.2358355707174127  0.4993783181322939  0.2127685272961486   T   T   T
  0.2336933256847189  0.4998852559015816  0.3650545361617787   T   T   T
  0.3257827029732638  0.8296409671195235  0.1859277121890628   T   T   T
  0.3287558550986347  0.8289276010244677  0.3376877405593248   T   T   T
  0.2635698226795853  0.7641502978030488  0.2127728786704637   T   T   T
  0.2661928628206525  0.7661913678595482  0.3650450385717576   T   T   T
  0.0003012051759868  0.6758125261093682  0.1864513998601325   T   T   T
  0.9999790858677997  0.6711753473128539  0.3381600292263016   T   T   T
  0.9999509450369786  0.7360633976973361  0.2140446207260354   T   T   T
  0.9999673705039669  0.7336762372311654  0.3656573077370382   T   T   T
  0.3299371994698959  0.5002936876877300  0.2613512458437199   T   T   T
  0.3295323366314449  0.4999408369168350  0.4138230073783618   T   T   T
  0.2667807745001625  0.5001542452651719  0.2886596676824666   T   T   T
  0.2663274217416500  0.4999593935998021  0.4413599646551702   T   T   T
  0.1704996751156429  0.6701808577494646  0.2613804070032444   T   T   T
  0.1703557605543011  0.6703520323096228  0.4138305389589974   T   T   T
  0.2335227033597533  0.7334422552385576  0.2886742776921665   T   T   T
  0.2335662542340557  0.7335568969054123  0.4413612734494592   T   T   T
  0.9999430805983067  0.8290837891455496  0.2629201828846703   T   T   T
  0.9999630615872590  0.8292699927433773  0.4149197091318086   T   T   T
  0.0000227792853238  0.7659397509884300  0.2900728375449546   T   T   T
  0.9999160904224880  0.7659513840755920  0.4423659690310231   T   T   T
  0.6674716746359124  0.5633137078338422  0.2945133460410929   T   T   T
  0.6669079873810588  0.5632570738447669  0.4472030355090908   T   T   T
  0.8960512748195484  0.8327579541068957  0.2955859636396383   T   T   T
  0.8962061952503788  0.8327709906125094  0.4481148207906784   T   T   T
  0.4369109890423744  0.6042160425036656  0.2942916705681000   T   T   T
  0.4363263129039296  0.6033297374947821  0.4470097385045406   T   T   T
  0.8333588190939878  0.4363314184881233  0.2176508692393142   T   T   T
  0.8329549214029655  0.4365098495654891  0.3705550010037726   T   T   T
  0.6052393027962282  0.6685926750356188  0.2183970201231631   T   T   T
  0.6034262325503903  0.6665856039420319  0.3708556487831274   T   T   T
  0.5629017653803174  0.8963351115056071  0.2178847054989106   T   T   T
  0.5629848746419981  0.8961527571351837  0.3707344604349885   T   T   T
  0.4362617509657554  0.8334137202484584  0.2177228862199030   T   T   T
  0.4364626544115069  0.8329258700695732  0.3705665553743671   T   T   T
  0.6684770157063653  0.6053049567982995  0.2183944629896857   T   T   T
  0.6665975835859754  0.6033904953253497  0.3708499668662668   T   T   T
  0.8962885719412839  0.5629539119222571  0.2178115711096069   T   T   T
  0.8961677738420875  0.5630280981506317  0.3707268149474743   T   T   T
  0.5633193669522640  0.6674792343171916  0.2945235958958676   T   T   T
  0.5632809127424139  0.6668982761605449  0.4471969312143713   T   T   T
  0.8327661004459870  0.8960403775233630  0.2955882218691457   T   T   T
  0.8327682232315325  0.8961920553809577  0.4481124340770677   T   T   T
  0.6042264887018618  0.4369088606629106  0.2942732226287816   T   T   T
  0.6033484269624410  0.4363013807531360  0.4470016640468941   T   T   T
  0.6741285659373517  0.5039934564580264  0.1858797400579064   T   T   T
  0.6711410551804207  0.5000520455741366  0.3376591201930026   T   T   T
  0.7363378227643125  0.5005466095069053  0.2127128060489980   T   T   T
  0.7336602110974866  0.4999447712022018  0.3650277722128195   T   T   T
  0.8317341463153127  0.8317921334313567  0.1877032223122939   T   T   T
  0.8292506025216966  0.8292257452162204  0.3387190394385016   T   T   T
  0.7657642403114195  0.7658138367169940  0.2141801338033815   T   T   T
  0.7662764588246631  0.7662461086530499  0.3659375148029156   T   T   T
  0.5036354888728241  0.6742439428148046  0.1859226817344393   T   T   T
  0.5000724966266574  0.6711461950018247  0.3376703855510215   T   T   T
  0.5004420675410444  0.7364335105751820  0.2127841083957307   T   T   T
  0.4999532525005890  0.7336604033891021  0.3650393473520239   T   T   T
  0.8296387965619942  0.4997825079001998  0.2613227855675646   T   T   T
  0.8294756321498014  0.4999816547851736  0.4138056562685009   T   T   T
  0.7666559573928140  0.4999523994034760  0.2886312292311288   T   T   T
  0.7662371297846846  0.4998935971782288  0.4413483819906645   T   T   T
  0.6715597487633289  0.6715922884714800  0.2620181382512285   T   T   T
  0.6708498690546634  0.6708052714898116  0.4142608952437570   T   T   T
  0.7337943635206585  0.7337923383785565  0.2895385030698279   T   T   T
  0.7336501859122606  0.7336254948370424  0.4419410531905896   T   T   T
  0.4997594448327121  0.8296900263085618  0.2613735310277576   T   T   T
  0.4999648718432752  0.8294874482704699  0.4138184366611313   T   T   T
  0.4999595724019130  0.7666709529598990  0.2886713368434215   T   T   T
  0.4999040160652299  0.7662511681185364  0.4413552907193221   T   T   T
  0.9367386476817430  0.1039704253935270  0.2955833109338641   T   T   T
  0.9365137444795550  0.1036879761671869  0.4481264764873885   T   T   T
  0.9368011971373846  0.3312618721854150  0.2184255103752690   T   T   T
  0.9367800226649621  0.3332267364074184  0.3708695221658118   T   T   T
  0.9369323284199993  0.6030169884535468  0.2946341815272007   T   T   T
  0.9364884551057528  0.6028823012482647  0.4473786013726269   T   T   T
  0.9365937833783278  0.8321266604587549  0.2198023043973194   T   T   T
  0.9367491358705351  0.8327661759874161  0.3716568606212718   T   T   T
  0.3311556149603021  0.9367363778051043  0.2184170834463899   T   T   T
  0.3332184029940350  0.9367559791119504  0.3708714184722339   T   T   T
  0.1039738145620888  0.9367176256973622  0.2955785655724554   T   T   T
  0.1037065232266201  0.9364983631405650  0.4481262700293200   T   T   T
  0.8321399787585122  0.9366413835720593  0.2198024744680396   T   T   T
  0.8327784679509520  0.9367207536594151  0.3716545489426863   T   T   T
  0.6030331840183010  0.9369710022308837  0.2946530783250338   T   T   T
  0.6029026174414511  0.9365218201534233  0.4473844092897465   T   T   T
  0.1668005863057260  0.9996703734115471  0.2077810417219226   T   T   T
  0.1680337110953118  0.9998788674688868  0.3588775770087480   T   T   T
  0.1691554035978839  0.9999842167731714  0.3026369138439691   T   T   T
  0.1708977904835791  0.9999180701319972  0.4541340702032528   T   T   T
  0.3291229362220705  0.3292267448793140  0.2064294881602606   T   T   T
  0.3313859997860789  0.3313861644434581  0.3582919225258365   T   T   T
  0.3327720769720131  0.3327508707784048  0.3020513447654878   T   T   T
  0.3304906867205872  0.3304363852274506  0.4537210355210917   T   T   T
  0.9996706639560671  0.1668556400586780  0.2077787032387448   T   T   T
  0.9998900383415830  0.1680173028576704  0.3588838199053299   T   T   T
  0.0000086494229663  0.1691480759033865  0.3026421112850741   T   T   T
  0.9999261806944162  0.1708778274128093  0.4541367992945169   T   T   T
  0.3314605944662361  0.0001629678050179  0.2821636792544737   T   T   T
  0.3318067499762307  0.0000102402418705  0.4344225269683122   T   T   T
  0.3303366018447349  0.9999911419762739  0.2259085769586520   T   T   T
  0.3319542858440556  0.9999681857673366  0.3782137578786404   T   T   T
  0.1684649779245362  0.1684499791929071  0.2830796124747579   T   T   T
  0.1680736744125682  0.1680637788306072  0.4350931058046328   T   T   T
  0.1691257720918600  0.1691386440600553  0.2269844745005329   T   T   T
  0.1689203006726245  0.1689009722649146  0.3787829082072562   T   T   T
  0.0001907801284702  0.3314716078924747  0.2821758493753563   T   T   T
  0.9999942752056867  0.3317771526466444  0.4344269554460922   T   T   T
  0.0000477839656341  0.3304238910580182  0.2259170689646766   T   T   T
  0.9999574545034449  0.3319228842382884  0.3782214007737181   T   T   T
  0.6704203313334034  0.9999096271077761  0.2064453039579561   T   T   T
  0.6684746642104074  0.9999165730110917  0.3583013294336794   T   T   T
  0.6673838785051771  0.0001175682548649  0.3020671563848154   T   T   T
  0.6694645848607834  0.9999009437739517  0.4537347656686350   T   T   T
  0.8314583642839040  0.3292590587845652  0.2059043382197530   T   T   T
  0.8317792577268577  0.3314882849704119  0.3578132964547223   T   T   T
  0.8308413180070673  0.3309481114984010  0.3014971862516376   T   T   T
  0.8291280349318271  0.3294404299591704  0.4530936665950094   T   T   T
  0.4977232454918195  0.1685420693313020  0.2059026337301688   T   T   T
  0.4996523855877797  0.1681474768116402  0.3578075975091437   T   T   T
  0.5002348130854131  0.1694333834635842  0.3015002460389127   T   T   T
  0.5002736785951569  0.1708251652609718  0.4531183491765560   T   T   T
  0.8315931640178817  0.0000239962577666  0.2830805216261396   T   T   T
  0.8318295650653056  0.9999627236417226  0.4350807391688676   T   T   T
  0.8303137400508405  0.9998343208951823  0.2270037310904769   T   T   T
  0.8309239636564953  0.9999072940020497  0.3787867088295513   T   T   T
  0.6679586742840726  0.1681007200780655  0.2814609333454996   T   T   T
  0.6679084991901050  0.1677051407146948  0.4339717149304789   T   T   T
  0.6674486502487227  0.1682141097495418  0.2250073781367519   T   T   T
  0.6684285542719479  0.1687981195438226  0.3777485537224052   T   T   T
  0.5002003241306383  0.3322166165372735  0.2814555394366778   T   T   T
  0.4998248478263037  0.3319923908744116  0.4339696737146426   T   T   T
  0.5005666671043443  0.3324769992347498  0.2250014179574933   T   T   T
  0.5003074017961424  0.3314429774414478  0.3777566811276216   T   T   T
  0.1686654108203882  0.4978142905227969  0.2059303551412484   T   T   T
  0.1681740074873090  0.4995747504046548  0.3578219773316320   T   T   T
  0.1694683075252215  0.5002099333543839  0.3015197377597758   T   T   T
  0.1708238542492637  0.5002253476899696  0.4531137186656125   T   T   T
  0.3291529496810384  0.8313496278229096  0.2059415643038633   T   T   T
  0.3314223802497338  0.8317188079985343  0.3578286558841057   T   T   T
  0.3309444517039992  0.8308650222735707  0.3015186217627459   T   T   T
  0.3294286280507777  0.8291376627636282  0.4531046304553428   T   T   T
  0.0000663983377294  0.6705409457687281  0.2064314327828782   T   T   T
  0.9999473241039922  0.6684756165759396  0.3583006463273222   T   T   T
  0.0000457315501166  0.6673448427311470  0.3020659357969038   T   T   T
  0.9998611117301621  0.6694351716748628  0.4537385136712544   T   T   T
  0.3322592815692715  0.5001932377581824  0.2814888805846678   T   T   T
  0.3320179474751086  0.4997801722818807  0.4339857734927648   T   T   T
  0.3325319567957266  0.5006248560686117  0.2250718178752749   T   T   T
  0.3315037703398289  0.5003132086385733  0.3777751731162056   T   T   T
  0.1680876468408528  0.6679387467080318  0.2815180721656105   T   T   T
  0.1676925419851329  0.6678851138965456  0.4339926669889067   T   T   T
  0.1681511092179591  0.6673892178524810  0.2250811045863088   T   T   T
  0.1687729130746405  0.6683266417154172  0.3777651286155503   T   T   T
  0.0000267793820754  0.8315885230438909  0.2830778672356118   T   T   T
  0.9999735989056191  0.8318224485316250  0.4350847025231488   T   T   T
  0.9997956598039082  0.8303171298523040  0.2270069922405469   T   T   T
  0.9999376050828630  0.8309187067588510  0.3787903485590931   T   T   T
  0.6706820242688281  0.5020550740816176  0.2058944401353884   T   T   T
  0.6683949232613102  0.5001531661378209  0.3577989736657301   T   T   T
  0.6692352655698386  0.4998757835294185  0.3014922168347383   T   T   T
  0.6704724310202934  0.4996026936999414  0.4531139175008718   T   T   T
  0.8327485983626772  0.8327735172733313  0.2078148533429314   T   T   T
  0.8318161052983513  0.8317914430535254  0.3588689104227640   T   T   T
  0.8308319381250726  0.8308215586768668  0.3026221371668498   T   T   T
  0.8289923786657312  0.8289850679751538  0.4541070934766367   T   T   T
  0.5019449084375296  0.6708035876377636  0.2059356515943946   T   T   T
  0.5001872156903104  0.6684103617445274  0.3578108682572392   T   T   T
  0.4998848577161468  0.6692331974702554  0.3015084032737647   T   T   T
  0.4996342028735867  0.6704678596528879  0.4531119323953590   T   T   T
  0.8321195309153069  0.4999707296031275  0.2814591147196310   T   T   T
  0.8321359442737304  0.5001446648271966  0.4339678576360058   T   T   T
  0.8318143084664982  0.4993037536876841  0.2250094282559090   T   T   T
  0.8310815972799688  0.4996000577893156  0.3777528880389553   T   T   T
  0.6685991136754126  0.6686040970627971  0.2821532892084093   T   T   T
  0.6681056515653410  0.6680753376456110  0.4344191304215599   T   T   T
  0.6692773318888641  0.6693584875950691  0.2258956375591623   T   T   T
  0.6679084129740716  0.6678766494696049  0.3782014882682603   T   T   T
  0.4999754650407766  0.8321494997774153  0.2815114701979198   T   T   T
  0.5001397425839755  0.8321461970087896  0.4339808675282271   T   T   T
  0.4992318745861866  0.8318884203631001  0.2250915177972885   T   T   T
  0.4995655329981972  0.8310746619329521  0.3777648848908655   T   T   T
 
  0.00000000E+00  0.00000000E+00  0.00000000E+00
  0.00000000E+00  0.00000000E+00  0.00000000E+00
  0.00000000E+00  0.00000000E+00  0.00000000E+00
  0.00000000E+00  0.00000000E+00  0.00000000E+00
  0.00000000E+00  0.00000000E+00  0.00000000E+00
  0.00000000E+00  0.00000000E+00  0.00000000E+00
  0.00000000E+00  0.00000000E+00  0.00000000E+00
  0.00000000E+00  0.00000000E+00  0.00000000E+00
  0.00000000E+00  0.00000000E+00  0.00000000E+00
  0.00000000E+00  0.00000000E+00  0.00000000E+00
  0.00000000E+00  0.00000000E+00  0.00000000E+00
  0.00000000E+00  0.00000000E+00  0.00000000E+00
  0.00000000E+00  0.00000000E+00  0.00000000E+00
  0.00000000E+00  0.00000000E+00  0.00000000E+00
  0.00000000E+00  0.00000000E+00  0.00000000E+00
  0.00000000E+00  0.00000000E+00  0.00000000E+00
  0.00000000E+00  0.00000000E+00  0.00000000E+00
  0.00000000E+00  0.00000000E+00  0.00000000E+00
  0.00000000E+00  0.00000000E+00  0.00000000E+00
  0.00000000E+00  0.00000000E+00  0.00000000E+00
  0.00000000E+00  0.00000000E+00  0.00000000E+00
  0.00000000E+00  0.00000000E+00  0.00000000E+00
  0.00000000E+00  0.00000000E+00  0.00000000E+00
  0.00000000E+00  0.00000000E+00  0.00000000E+00
  0.00000000E+00  0.00000000E+00  0.00000000E+00
  0.00000000E+00  0.00000000E+00  0.00000000E+00
  0.00000000E+00  0.00000000E+00  0.00000000E+00