bilayer_1                               
   1.00000000000000     
    14.6976995467999991    0.0000000000000000    0.0000000000000000
    -7.3488497733999996   12.7285811846999994    0.0000000000000000
     0.0000000000000000    0.0000000000000000   49.2004013061999999
   H    O 
    48    24
Selective dynamics
Direct
  0.1065614195494990  0.1694804143908215  0.2133720830171537   T   T   T
  0.0629189968413226  0.3934385914505056  0.2133720830171537   T   T   T
  0.1694804023908205  0.1065614185494953  0.2133720830171537   T   T   T
  0.3934385754505043  0.0629189958413261  0.2133720830171537   T   T   T
  0.1772435003557239  0.0000000000000000  0.1803600678125947   T   T   T
  0.2394596027191570  0.0000000000000000  0.2081169776117283   T   T   T
  0.3227564816442743  0.3227564806442707  0.1803600678125947   T   T   T
  0.2605403982808395  0.2605404002808397  0.2081169776117283   T   T   T
  0.0000000049999969  0.1772435103557247  0.1803600678125947   T   T   T
  0.0000000029999967  0.2394596097191540  0.2081169776117283   T   T   T
  0.6065613705494982  0.1694804143908215  0.2133720830171537   T   T   T
  0.5629189728413209  0.3934385914505056  0.2133720830171537   T   T   T
  0.4370810201586750  0.3305196146091776  0.2133720830171537   T   T   T
  0.6694804023908205  0.1065614185494953  0.2133720830171537   T   T   T
  0.8934385754505044  0.0629189958413261  0.2133720830171537   T   T   T
  0.6772434843557299  0.0000000000000000  0.1803600678125947   T   T   T
  0.7394596357191561  0.0000000000000000  0.2081169776117283   T   T   T
  0.8227564656442731  0.3227564806442707  0.1803600678125947   T   T   T
  0.7605403822808454  0.2605404002808397  0.2081169776117283   T   T   T
  0.4999999970000033  0.1772435103557247  0.1803600678125947   T   T   T
  0.5000000029999967  0.2394596097191540  0.2081169776117283   T   T   T
  0.3305195916091793  0.4370809951586765  0.2133720830171537   T   T   T
  0.1065614335494930  0.6694804423908167  0.2133720830171537   T   T   T
  0.0629190118413274  0.8934386384505061  0.2133720830171537   T   T   T
  0.1694804233908187  0.6065614275494923  0.2133720830171537   T   T   T
  0.3934386064505033  0.5629190238413215  0.2133720830171537   T   T   T
  0.1772435053557279  0.5000000100000008  0.1803600678125947   T   T   T
  0.2394596077191539  0.5000000100000008  0.2081169776117283   T   T   T
  0.3227565056442763  0.8227565276442711  0.1803600678125947   T   T   T
  0.2605404032808435  0.7605404092808441  0.2081169776117283   T   T   T
  0.0000000269999987  0.6772435393557238  0.1803600678125947   T   T   T
  0.0000000109999974  0.7394596567191543  0.2081169776117283   T   T   T
  0.8305195596091763  0.4370809951586765  0.2133720830171537   T   T   T
  0.6065614015494972  0.6694804423908167  0.2133720830171537   T   T   T
  0.5629190118413276  0.8934386384505061  0.2133720830171537   T   T   T
  0.4370810411586732  0.8305196236091816  0.2133720830171537   T   T   T
  0.6694804233908187  0.6065614275494923  0.2133720830171537   T   T   T
  0.8934386384505061  0.5629190238413215  0.2133720830171537   T   T   T
  0.6772434733557254  0.5000000100000008  0.1803600678125947   T   T   T
  0.7394596237191551  0.5000000100000008  0.2081169776117283   T   T   T
  0.8227565056442764  0.8227565276442711  0.1803600678125947   T   T   T
  0.7605404032808436  0.7605404092808441  0.2081169776117283   T   T   T
  0.5000000269999987  0.6772435393557238  0.1803600678125947   T   T   T
  0.5000000109999974  0.7394596567191543  0.2081169776117283   T   T   T
  0.9370809871586758  0.3305196146091776  0.2133720830171537   T   T   T
  0.9370810081586740  0.8305196236091816  0.2133720830171537   T   T   T
  0.3305196126091774  0.9370810051586773  0.2133720830171537   T   T   T
  0.8305195806091816  0.9370810051586773  0.2133720830171537   T   T   T
  0.1714214104783659  0.0000000000000000  0.2000125319315479   T   T   T
  0.3285785835216334  0.3285785775216329  0.2000125319315479   T   T   T
  0.0000000009999965  0.1714214134783697  0.2000125319315479   T   T   T
  0.3271157760740295  0.0000000000000000  0.2194662286098300   T   T   T
  0.1728842069259725  0.1728842069259725  0.2194662286098300   T   T   T
  0.0000000040000003  0.3271157840740302  0.2194662286098300   T   T   T
  0.6714214104783663  0.0000000000000000  0.2000125319315479   T   T   T
  0.8285785515216305  0.3285785775216329  0.2000125319315479   T   T   T
  0.5000000169999979  0.1714214134783697  0.2000125319315479   T   T   T
  0.8271157760740296  0.0000000000000000  0.2194662286098300   T   T   T
  0.6728842479259723  0.1728842069259725  0.2194662286098300   T   T   T
  0.5000000200000017  0.3271157840740302  0.2194662286098300   T   T   T
  0.1714214154783699  0.5000000100000008  0.2000125319315479   T   T   T
  0.3285786235216296  0.8285786245216330  0.2000125319315479   T   T   T
  0.0000000149999977  0.6714214414783654  0.2000125319315479   T   T   T
  0.3271157810740264  0.5000000100000008  0.2194662286098300   T   T   T
  0.1728841969259717  0.6728842349259677  0.2194662286098300   T   T   T
  0.9999999899999992  0.8271157560740280  0.2194662286098300   T   T   T
  0.6714213994783690  0.5000000100000008  0.2000125319315479   T   T   T
  0.8285785905216302  0.8285786245216330  0.2000125319315479   T   T   T
  0.5000000149999977  0.6714214414783654  0.2000125319315479   T   T   T
  0.8271157650740323  0.5000000100000008  0.2194662286098300   T   T   T
  0.6728842459259722  0.6728842349259677  0.2194662286098300   T   T   T
  0.4999999899999992  0.8271157560740280  0.2194662286098300   T   T   T
 
  0.00000000E+00  0.00000000E+00  0.00000000E+00
  0.00000000E+00  0.00000000E+00  0.00000000E+00
  0.00000000E+00  0.00000000E+00  0.00000000E+00
  0.00000000E+00  0.00000000E+00  0.00000000E+00
  0.00000000E+00  0.00000000E+00  0.00000000E+00
  0.00000000E+00  0.00000000E+00  0.00000000E+00
  0.00000000E+00  0.00000000E+00  0.00000000E+00
  0.00000000E+00  0.00000000E+00  0.00000000E+00
  0.00000000E+00  0.00000000E+00  0.00000000E+00
  0.00000000E+00  0.00000000E+00  0.00000000E+00
  0.00000000E+00  0.00000000E+00  0.00000000E+00
  0.00000000E+00  0.00000000E+00  0.00000000E+00
  0.00000000E+00  0.00000000E+00  0.00000000E+00
  0.00000000E+00  0.00000000E+00  0.00000000E+00
  0.00000000E+00  0.00000000E+00  0.00000000E+00
  0.00000000E+00  0.00000000E+00  0.00000000E+00
  0.00000000E+00  0.00000000E+00  0.00000000E+00
  0.00000000E+00  0.00000000E+00  0.00000000E+00
  0.00000000E+00  0.00000000E+00  0.00000000E+00
  0.00000000E+00  0.00000000E+00  0.00000000E+00
  0.00000000E+00  0.00000000E+00  0.00000000E+00
  0.00000000E+00  0.00000000E+00  0.00000000E+00
  0.00000000E+00  0.00000000E+00  0.00000000E+00
  0.00000000E+00  0.00000000E+00  0.00000000E+00
  0.00000000E+00  0.00000000E+00  0.00000000E+00
  0.00000000E+00  0.00000000E+00  0.00000000E+00
  0.00000000E+00  0.00000000E+00  0.00000000E+00
  0.00000000E+00  0.00000000E+00  0.00000000E+00
  0.00000000E+00  0.00000000E+00  0.00000000E+00
  0.00000000E+00  0.00000000E+00  0.00000000E+00
  0.00000000E+00  0.00000000E+00  0.00000000E+00
  0.00000000E+00  0.00000000E+00  0.00000000E+00
  0.00000000E+00  0.00000000E+00  0.00000000E+00
  0.00000000E+00  0.00000000E+00  0.00000000E+00
  0.00000000E+00  0.00000000E+00  0.00000000E+00
  0.00000000E+00  0.00000000E+00  0.00000000E+00
  0.00000000E+00  0.00000000E+00  0.00000000E+00
  0.00000000E+00  0.00000000E+00  0.00000000E+00
  0.00000000E+00  0.00000000E+00  0.00000000E+00
  0.00000000E+00  0.00000000E+00  0.00000000E+00
  0.00000000E+00  0.00000000E+00  0.00000000E+00
  0.00000000E+00  0.00000000E+00  0.00000000E+00
  0.00000000E+00  0.00000000E+00  0.00000000E+00
  0.00000000E+00  0.00000000E+00  0.00000000E+00
  0.00000000E+00  0.00000000E+00  0.00000000E+00
  0.00000000E+00  0.00000000E+00  0.00000000E+00
  0.00000000E+00  0.00000000E+00  0.00000000E+00
  0.00000000E+00  0.00000000E+00  0.00000000E+00
  0.00000000E+00  0.00000000E+00  0.00000000E+00
  0.00000000E+00  0.00000000E+00  0.00000000E+00
  0.00000000E+00  0.00000000E+00  0.00000000E+00
  0.00000000E+00  0.00000000E+00  0.00000000E+00
  0.00000000E+00  0.00000000E+00  0.00000000E+00
  0.00000000E+00  0.00000000E+00  0.00000000E+00
  0.00000000E+00  0.00000000E+00  0.00000000E+00
  0.00000000E+00  0.00000000E+00  0.00000000E+00
  0.00000000E+00  0.00000000E+00  0.00000000E+00
  0.00000000E+00  0.00000000E+00  0.00000000E+00
  0.00000000E+00  0.00000000E+00  0.00000000E+00
  0.00000000E+00  0.00000000E+00  0.00000000E+00
  0.00000000E+00  0.00000000E+00  0.00000000E+00
  0.00000000E+00  0.00000000E+00  0.00000000E+00
  0.00000000E+00  0.00000000E+00  0.00000000E+00
  0.00000000E+00  0.00000000E+00  0.00000000E+00
  0.00000000E+00  0.00000000E+00  0.00000000E+00
  0.00000000E+00  0.00000000E+00  0.00000000E+00
  0.00000000E+00  0.00000000E+00  0.00000000E+00
  0.00000000E+00  0.00000000E+00  0.00000000E+00
  0.00000000E+00  0.00000000E+00  0.00000000E+00
  0.00000000E+00  0.00000000E+00  0.00000000E+00
  0.00000000E+00  0.00000000E+00  0.00000000E+00
  0.00000000E+00  0.00000000E+00  0.00000000E+00
