bilayer_1
1.0
       14.6976995468         0.0000000000         0.0000000000
       -7.3488497734        12.7285811847         0.0000000000
        0.0000000000         0.0000000000        49.2004013062
   H    O
  48   24
Selective dynamics
Direct
     0.106910005         0.168140004         0.212479987 T T T
     0.061230001         0.393090006         0.212479987 T T T
     0.168139992         0.106910004         0.212479987 T T T
     0.393089990         0.061230000         0.212479987 T T T
     0.165409993        -0.000000000         0.180899998 T T T
     0.226169999        -0.000000000         0.207859996 T T T
     0.334589989         0.334589988         0.180899998 T T T
     0.273830002         0.273830004         0.207859996 T T T
     0.000000005         0.165410003         0.180899998 T T T
     0.000000003         0.226170006         0.207859996 T T T
     0.606909956         0.168140004         0.212479987 T T T
     0.561229977         0.393090006         0.212479987 T T T
     0.438770016         0.331860025         0.212479987 T T T
     0.668139992         0.106910004         0.212479987 T T T
     0.893089990         0.061230000         0.212479987 T T T
     0.665409977        -0.000000000         0.180899998 T T T
     0.726170032        -0.000000000         0.207859996 T T T
     0.834589973         0.334589988         0.180899998 T T T
     0.773829986         0.273830004         0.207859996 T T T
     0.499999997         0.165410003         0.180899998 T T T
     0.500000003         0.226170006         0.207859996 T T T
     0.331860002         0.438769991         0.212479987 T T T
     0.106910019         0.668140032         0.212479987 T T T
     0.061230016         0.893090053         0.212479987 T T T
     0.168140013         0.606910013         0.212479987 T T T
     0.393090021         0.561230028         0.212479987 T T T
     0.165409998         0.500000010         0.180899998 T T T
     0.226170004         0.500000010         0.207859996 T T T
     0.334590013         0.834590035         0.180899998 T T T
     0.273830007         0.773830013         0.207859996 T T T
     0.000000027         0.665410032         0.180899998 T T T
     0.000000011         0.726170053         0.207859996 T T T
     0.831859970         0.438769991         0.212479987 T T T
     0.606909987         0.668140032         0.212479987 T T T
     0.561230016         0.893090053         0.212479987 T T T
     0.438770037         0.831860034         0.212479987 T T T
     0.668140013         0.606910013         0.212479987 T T T
     0.893090053         0.561230028         0.212479987 T T T
     0.665409966         0.500000010         0.180899998 T T T
     0.726170020         0.500000010         0.207859996 T T T
     0.834590013         0.834590035         0.180899998 T T T
     0.773830007         0.773830013         0.207859996 T T T
     0.500000027         0.665410032         0.180899998 T T T
     0.500000011         0.726170053         0.207859996 T T T
     0.938769983         0.331860025         0.212479987 T T T
     0.938770004         0.831860034         0.212479987 T T T
     0.331860023         0.938770001         0.212479987 T T T
     0.831859991         0.938770001         0.212479987 T T T
     0.163320000         0.000000000         0.201339998 T T T
     0.336679994         0.336679988         0.201339998 T T T
     0.000000001         0.163320003         0.201339998 T T T
     0.330299990        -0.000000000         0.219640006 T T T
     0.169699993         0.169699993         0.219640006 T T T
     0.000000004         0.330299998         0.219640006 T T T
     0.663320000         0.000000000         0.201339998 T T T
     0.836679962         0.336679988         0.201339998 T T T
     0.500000017         0.163320003         0.201339998 T T T
     0.830299990        -0.000000000         0.219640006 T T T
     0.669700034         0.169699993         0.219640006 T T T
     0.500000020         0.330299998         0.219640006 T T T
     0.163320005         0.500000010         0.201339998 T T T
     0.336680034         0.836680035         0.201339998 T T T
     0.000000015         0.663320031         0.201339998 T T T
     0.330299995         0.500000010         0.219640006 T T T
     0.169699983         0.669700021         0.219640006 T T T
    -0.000000010         0.830299970         0.219640006 T T T
     0.663319989         0.500000010         0.201339998 T T T
     0.836680001         0.836680035         0.201339998 T T T
     0.500000015         0.663320031         0.201339998 T T T
     0.830299979         0.500000010         0.219640006 T T T
     0.669700032         0.669700021         0.219640006 T T T
     0.499999990         0.830299970         0.219640006 T T T
