bilayer_4
1.0
       14.6976995468         0.0000000000         0.0000000000
       -7.3488497734        12.7285811847         0.0000000000
        0.0000000000         0.0000000000        49.2004013062
    H    O
  192   96
Cartesian
       2.0217908380           0.8023578290          14.2910325560
       2.0217908380           0.8023578290          22.3510325560
       3.3583916210           4.2121896410          14.2910325560
       3.3583916210           4.2121896410          22.3510325560
       0.3143049270           2.1526760330          10.2773614170
       0.3143049270           2.1526760330          18.3373614170
      -1.9673052740           5.0157566200          10.2773614170
      -1.9673052740           5.0157566200          18.3373614170
       1.7071194480           1.3485340670          10.2773614170
       1.7071194480           1.3485340670          18.3373614170
       5.3274248510           0.8041419650          10.2773614170
       5.3274248510           0.8041419650          18.3373614170
      -0.3160331570           2.1521013310          14.2910325560
      -0.3160331570           2.1521013310          22.3510325560
       1.9686674240           5.0145472800          14.2910325560
       1.9686674240           5.0145472800          22.3510325560
       2.5932018870           0.0000000000           8.6604377470
       2.5932018870           0.0000000000          16.7204377470
       3.5074252250           0.0000000000          10.0206476910
       3.5074252250           0.0000000000          18.0806476910
       2.3778238340           4.1185116910           8.6604377470
       2.3778238340           4.1185116910          16.7204377470
       1.9207123840           3.3267714350          10.0206476910
       1.9207123840           3.3267714350          18.0806476910
      -1.2966009440           2.2457787120           8.6604377470
      -1.2966009440           2.2457787120          16.7204377470
      -1.7537126130           3.0375193470          10.0206476910
      -1.7537126130           3.0375193470          18.0806476910
       4.7475376230           0.0000000000          12.6669035550
       4.7475376230           0.0000000000          20.7269035550
       3.8397953120           0.0000000000          14.0351729410
       3.8397953120           0.0000000000          22.0951729410
       1.3006557460           2.2528022150          12.6669035550
       1.3006557460           2.2528022150          20.7269035550
       1.7545272310           3.0389303070          14.0351729410
       1.7545272310           3.0389303070          22.0951729410
      -2.3737688120           4.1114881870          12.6669035550
      -2.3737688120           4.1114881870          20.7269035550
      -1.9198976560           3.3253602860          14.0351729410
      -1.9198976560           3.3253602860          22.0951729410
       9.3706403920           0.8023578290          14.2910325560
       9.3706403920           0.8023578290          22.3510325560
      10.7072413940           4.2121896410          14.2910325560
      10.7072413940           4.2121896410          22.3510325560
       5.6430922560           1.3497434070          14.2910325560
       5.6430922560           1.3497434070          22.3510325560
       7.6631537140           2.1526760330          10.2773614170
       7.6631537140           2.1526760330          18.3373614170
       5.3815437330           5.0157566200          10.2773614170
       5.3815437330           5.0157566200          18.3373614170
       3.9887299230           4.2116149390          10.2773614170
       3.9887299230           4.2116149390          18.3373614170
       9.0559694410           1.3485340670          10.2773614170
       9.0559694410           1.3485340670          18.3373614170
      12.6762750620           0.8041419650          10.2773614170
      12.6762750620           0.8041419650          18.3373614170
       7.0328162880           2.1521013310          14.2910325560
       7.0328162880           2.1521013310          22.3510325560
       9.3175163220           5.0145472800          14.2910325560
       9.3175163220           5.0145472800          22.3510325560
       9.9420514420           0.0000000000           8.6604377470
       9.9420514420           0.0000000000          16.7204377470
      10.8562756560           0.0000000000          10.0206476910
      10.8562756560           0.0000000000          18.0806476910
       9.7266731690           4.1185116910           8.6604377470
       9.7266731690           4.1185116910          16.7204377470
       9.2695621570           3.3267714350          10.0206476910
       9.2695621570           3.3267714350          18.0806476910
       6.0522488300           2.2457787120           8.6604377470
       6.0522488300           2.2457787120          16.7204377470
       5.5951371610           3.0375193470          10.0206476910
       5.5951371610           3.0375193470          18.0806476910
      12.0963873970           0.0000000000          12.6669035550
      12.0963873970           0.0000000000          20.7269035550
      11.1886450860           0.0000000000          14.0351729410
      11.1886450860           0.0000000000          22.0951729410
       8.6495050820           2.2528022150          12.6669035550
       8.6495050820           2.2528022150          20.7269035550
       9.1033770040           3.0389303070          14.0351729410
       9.1033770040           3.0389303070          22.0951729410
       4.9750809620           4.1114881870          12.6669035550
       4.9750809620           4.1114881870          20.7269035550
       5.4289521170           3.3253602860          14.0351729410
       5.4289521170           3.3253602860          22.0951729410
      -1.6526341580           7.1666489900          14.2910325560
      -1.6526341580           7.1666489900          22.3510325560
      -0.3160328280          10.5764802330          14.2910325560
      -0.3160328280          10.5764802330          22.3510325560
       1.6530003480           5.5601485320          10.2773614170
       1.6530003480           5.5601485320          18.3373614170
      -3.3601197410           8.5169666250          10.2773614170
      -3.3601197410           8.5169666250          18.3373614170
      -5.6417303800          11.3800479710          10.2773614170
      -5.6417303800          11.3800479710          18.3373614170
      -1.9673049460           7.7128245650          10.2773614170
      -1.9673049460           7.7128245650          18.3373614170
       1.6530007860           7.1684326530          10.2773614170
       1.6530007860           7.1684326530          18.3373614170
      -3.9904581530           8.5163923030          14.2910325560
      -3.9904581530           8.5163923030          22.3510325560
      -1.7057579010          11.3788386310          14.2910325560
      -1.7057579010          11.3788386310          22.3510325560
      -1.6526340490           5.5619325740          14.2910325560
      -1.6526340490           5.5619325740          22.3510325560
      -1.0812229990           6.3642905920           8.6604377470
      -1.0812229990           6.3642905920          16.7204377470
      -0.1669996620           6.3642905920          10.0206476910
      -0.1669996620           6.3642905920          18.0806476910
      -1.2966008340          10.4828026630           8.6604377470
      -1.2966008340          10.4828026630          16.7204377470
      -1.7537125030           9.6910620280          10.0206476910
      -1.7537125030           9.6910620280          18.0806476910
      -4.9710261590           8.6100698730           8.6604377470
      -4.9710261590           8.6100698730          16.7204377470
      -5.4281378280           9.4018105080          10.0206476910
      -5.4281378280           9.4018105080          18.0806476910
       1.0731131750           6.3642905920          12.6669035550
       1.0731131750           6.3642905920          20.7269035550
       0.1653708630           6.3642905920          14.0351729410
       0.1653708630           6.3642905920          22.0951729410
      -2.3737688120           8.6170929970          12.6669035550
      -2.3737688120           8.6170929970          20.7269035550
      -1.9198980940           9.4032216580          14.0351729410
      -1.9198980940           9.4032216580          22.0951729410
      -6.0481941360          10.4757795380          12.6669035550
      -6.0481941360          10.4757795380          20.7269035550
      -5.5943225430           9.6896508780          14.0351729410
      -5.5943225430           9.6896508780          22.0951729410
       5.6962160530           7.1666489900          14.2910325560
       5.6962160530           7.1666489900          22.3510325560
       7.0328165070          10.5764802330          14.2910325560
       7.0328165070          10.5764802330          22.3510325560
       1.9686678620           7.7140339050          14.2910325560
       1.9686678620           7.7140339050          22.3510325560
       9.0018501210           5.5601485320          10.2773614170
       9.0018501210           5.5601485320          18.3373614170
       3.9887297040           8.5169666250          10.2773614170
       3.9887297040           8.5169666250          18.3373614170
       1.7071192840          11.3800479710          10.2773614170
       1.7071192840          11.3800479710          18.3373614170
       0.3143052550          10.5759059110          10.2773614170
       0.3143052550          10.5759059110          18.3373614170
       5.3815446090           7.7128245650          10.2773614170
       5.3815446090           7.7128245650          18.3373614170
       9.0018509970           7.1684326530          10.2773614170
       9.0018509970           7.1684326530          18.3373614170
       3.3583920590           8.5163923030          14.2910325560
       3.3583920590           8.5163923030          22.3510325560
       5.6430918730          11.3788386310          14.2910325560
       5.6430918730          11.3788386310          22.3510325560
       5.6962149580           5.5619325740          14.2910325560
       5.6962149580           5.5619325740          22.3510325560
       6.2676265550           6.3642905920           8.6604377470
       6.2676265550           6.3642905920          16.7204377470
       7.1818507690           6.3642905920          10.0206476910
       7.1818507690           6.3642905920          18.0806476910
       6.0522489390          10.4828026630           8.6604377470
       6.0522489390          10.4828026630          16.7204377470
       5.5951372700           9.6910620280          10.0206476910
       5.5951372700           9.6910620280          18.0806476910
       2.3778236140           8.6100698730           8.6604377470
       2.3778236140           8.6100698730          16.7204377470
       1.9207119460           9.4018105080          10.0206476910
       1.9207119460           9.4018105080          18.0806476910
       8.4219625100           6.3642905920          12.6669035550
       8.4219625100           6.3642905920          20.7269035550
       7.5142201990           6.3642905920          14.0351729410
       7.5142201990           6.3642905920          22.0951729410
       4.9750809620           8.6170929970          12.6669035550
       4.9750809620           8.6170929970          20.7269035550
       5.4289525550           9.4032216580          14.0351729410
       5.4289525550           9.4032216580          22.0951729410
       1.3006556370          10.4757795380          12.6669035550
       1.3006556370          10.4757795380          20.7269035550
       1.7545272310           9.6896508780          14.0351729410
       1.7545272310           9.6896508780          22.0951729410
      12.9919411530           1.3497434070          14.2910325560
      12.9919411530           1.3497434070          22.3510325560
      11.3375792580           4.2116149390          10.2773614170
      11.3375792580           4.2116149390          18.3373614170
       9.3175171980           7.7140339050          14.2910325560
       9.3175171980           7.7140339050          22.3510325560
       7.6631541520          10.5759059110          10.2773614170
       7.6631541520          10.5759059110          18.3373614170
      -2.0214241010          11.9244391240          10.2773614170
      -2.0214241010          11.9244391240          18.3373614170
      -5.3270588260          11.9262235460          14.2910325560
      -5.3270588260          11.9262235460          22.3510325560
       5.3274252340          11.9244391240          10.2773614170
       5.3274252340          11.9244391240          18.3373614170
       2.0217907290          11.9262235460          14.2910325560
       2.0217907290          11.9262235460          22.3510325560
       2.5091154310           0.0000000000           9.6273538020
       2.5091154310           0.0000000000          17.6873538020
       2.5369366260           0.0000000000          14.5825185260
       2.5369366260           0.0000000000          22.6425185260
       2.4198670620           4.1913326990           9.6273538020
       2.4198670620           4.1913326990          17.6873538020
       2.4059564640           4.1672388370          14.5825185260
       2.4059564640           4.1672388370          22.6425185260
      -1.2545577150           2.1729577040           9.6273538020
      -1.2545577150           2.1729577040          17.6873538020
      -1.2684683130           2.1970515660          14.5825185260
      -1.2684683130           2.1970515660          22.6425185260
       4.8336341790           0.0000000000          13.6356715300
       4.8336341790           0.0000000000          21.6956715300
       4.8076066990           0.0000000000          10.5577336710
       4.8076066990           0.0000000000          18.6177336710
       1.2576079070           2.1782407900          13.6356715300
       1.2576079070           2.1782407900          21.6956715300
       1.2706213180           2.2007806800          10.5577336710
       1.2706213180           2.2007806800          18.6177336710
      -2.4168168710           4.1860496130          13.6356715300
      -2.4168168710           4.1860496130          21.6956715300
      -2.4038035690           4.1635099120          10.5577336710
      -2.4038035690           4.1635099120          18.6177336710
       9.8579654230           0.0000000000           9.6273538020
       9.8579654230           0.0000000000          17.6873538020
       9.8857870560           0.0000000000          14.5825185260
       9.8857870560           0.0000000000          22.6425185260
       9.7687168350           4.1913326990           9.6273538020
       9.7687168350           4.1913326990          17.6873538020
       9.7548058000           4.1672388370          14.5825185260
       9.7548058000           4.1672388370          22.6425185260
       6.0942920580           2.1729577040           9.6273538020
       6.0942920580           2.1729577040          17.6873538020
       6.0803814610           2.1970515660          14.5825185260
       6.0803814610           2.1970515660          22.6425185260
      12.1824830770           0.0000000000          13.6356715300
      12.1824830770           0.0000000000          21.6956715300
      12.1564564730           0.0000000000          10.5577336710
      12.1564564730           0.0000000000          18.6177336710
       8.6064574610           2.1782407900          13.6356715300
       8.6064574610           2.1782407900          21.6956715300
       8.6194715290           2.2007806800          10.5577336710
       8.6194715290           2.2007806800          18.6177336710
       4.9320329030           4.1860496130          13.6356715300
       4.9320329030           4.1860496130          21.6956715300
       4.9450462050           4.1635099120          10.5577336710
       4.9450462050           4.1635099120          18.6177336710
      -1.1653094560           6.3642905920           9.6273538020
      -1.1653094560           6.3642905920          17.6873538020
      -1.1374882610           6.3642905920          14.5825185260
      -1.1374882610           6.3642905920          22.6425185260
      -1.2545573870          10.5556240500           9.6273538020
      -1.2545573870          10.5556240500          17.6873538020
      -1.2684682030          10.5315290500          14.5825185260
      -1.2684682030          10.5315290500          22.6425185260
      -4.9289827120           8.5372484860           9.6273538020
      -4.9289827120           8.5372484860          17.6873538020
      -4.9428935280           8.5613427270          14.5825185260
      -4.9428935280           8.5613427270          22.6425185260
       1.1592092930           6.3642905920          13.6356715300
       1.1592092930           6.3642905920          21.6956715300
       1.1331822510           6.3642905920          10.5577336710
       1.1331822510           6.3642905920          18.6177336710
      -2.4168170900           8.5425319510          13.6356715300
      -2.4168170900           8.5425319510          21.6956715300
      -2.4038040070           8.5650716520          10.5577336710
      -2.4038040070           8.5650716520          18.6177336710
      -6.0912419760          10.5503405840          13.6356715300
      -6.0912419760          10.5503405840          21.6956715300
      -6.0782282360          10.5278001250          10.5577336710
      -6.0782282360          10.5278001250          18.6177336710
       6.1835396600           6.3642905920           9.6273538020
       6.1835396600           6.3642905920          17.6873538020
       6.2113621690           6.3642905920          14.5825185260
       6.2113621690           6.3642905920          22.6425185260
       6.0942915100          10.5556240500           9.6273538020
       6.0942915100          10.5556240500          17.6873538020
       6.0803811320          10.5315290500          14.5825185260
       6.0803811320          10.5315290500          22.6425185260
       2.4198670620           8.5372484860           9.6273538020
       2.4198670620           8.5372484860          17.6873538020
       2.4059562450           8.5613427270          14.5825185260
       2.4059562450           8.5613427270          22.6425185260
       8.5080581900           6.3642905920          13.6356715300
       8.5080581900           6.3642905920          21.6956715300
       8.4820315860           6.3642905920          10.5577336710
       8.4820315860           6.3642905920          18.6177336710
       4.9320322460           8.5425319510          13.6356715300
       4.9320322460           8.5425319510          21.6956715300
       4.9450464240           8.5650716520          10.5577336710
       4.9450464240           8.5650716520          18.6177336710
       1.2576086730          10.5503405840          13.6356715300
       1.2576086730          10.5503405840          21.6956715300
       1.2706215370          10.5278001250          10.5577336710
       1.2706215370          10.5278001250          18.6177336710
