au_111_4_layers_5x5_with_h2o_6_bilayers_
   1.00000000000000     
    14.6976995467999991    0.0000000000000000    0.0000000000000000
    -7.3488497733999996   12.7285811846999994    0.0000000000000000
     0.0000000000000000    0.0000000000000000   49.2004013061999999
   Au   H    O 
   100    48    24
Selective dynamics
Direct
  0.0000000000000000  0.0000000000000000  0.0000000000000000   F   F   F
  0.2657978067325961  0.1336362828578990  0.0473940435002127   T   T   T
  0.1312852428313313  0.2631231953676455  0.0944474585397709   T   T   T
  0.0003434005336815  0.0004593173268836  0.1461930626699842   T   T   T
  0.9999999999764526  0.2000000029901230  0.0000000000000000   F   F   F
  0.2670512661565738  0.3336249610545860  0.0471859040261759   T   T   T
  0.1308643859219338  0.0639485804275181  0.0950733645691034   T   T   T
  0.9998347138326362  0.1978841411298238  0.1449012854019911   T   T   T
  0.2000000030136633  0.2000000029901230  0.0000000000000000   F   F   F
  0.0666296941946339  0.3334635915693595  0.0474376723057862   T   T   T
  0.3291661617102438  0.0653262272880640  0.0942060888060860   T   T   T
  0.1952524247045022  0.1956766595897310  0.1429779123001168   T   T   T
  0.2000000029691691  0.0000000000000000  0.0000000000000000   F   F   F
  0.0663992768798056  0.1335842861997870  0.0473813337532775   T   T   T
  0.3298652930905727  0.2652278029256770  0.0944177536202278   T   T   T
  0.1981345727976143  0.0004838685565151  0.1448409632233302   T   T   T
  0.4000000059383453  0.0000000000000000  0.0000000000000000   F   F   F
  0.6673985326560422  0.1338188494018139  0.0474766298578721   T   T   T
  0.5312941898899876  0.2662964993089235  0.0943799860422903   T   T   T
  0.3969095066139515  0.0008467965334519  0.1419795319603546   T   T   T
  0.4000000059828395  0.2000000029901230  0.0000000000000000   F   F   F
  0.6667166637125644  0.3334080691107802  0.0476687464533585   T   T   T
  0.5304710430901861  0.0664487755272480  0.0938580295268306   T   T   T
  0.3946679433423336  0.1971649245939240  0.1413718920464602   T   T   T
  0.6000000238523029  0.2000000029901230  0.0000000000000000   F   F   F
  0.4664054846751755  0.3327759210081155  0.0474575376606439   T   T   T
  0.7350648322414716  0.0648990571752002  0.0944105059747315   T   T   T
  0.6004652166901947  0.2000157744367546  0.1407909508202975   T   T   T
  0.6000000238758432  0.0000000000000000  0.0000000000000000   F   F   F
  0.4667151724055767  0.1339965938147593  0.0472885506875783   T   T   T
  0.7339216312859601  0.2652615246106056  0.0944167279394443   T   T   T
  0.5983952325780972  0.0011927352742290  0.1399491409825913   T   T   T
  0.8000000119447250  0.0000000000000000  0.0000000000000000   F   F   F
  0.9348606725846341  0.2639229745861176  0.0942128581994370   T   T   T
  0.8048011777021172  0.9997970907931228  0.1429192511305085   T   T   T
  0.7999999523200216  0.2000000029901230  0.0000000000000000   F   F   F
  0.9364951328112341  0.0671948237585539  0.0950813700468416   T   T   T
  0.8030964035359659  0.1977380551648134  0.1413748272208236   T   T   T
  0.8661336658946799  0.3328189027709976  0.0472936828969195   T   T   T
  0.8664842752669338  0.1322115516228144  0.0473914284392493   T   T   T
  0.0000000000209468  0.4000000059802389  0.0000000000000000   F   F   F
  0.2669310702933778  0.5336116182566573  0.0471528323693396   T   T   T
  0.1343906096573455  0.6690587481345931  0.0938854646299903   T   T   T
  0.9992646073294373  0.3961586523757193  0.1420240518707336   T   T   T
  0.0000000000055138  0.6000000238188363  0.0000000000000000   F   F   F
  0.2666543287201967  0.7330910972715110  0.0471355645772326   T   T   T
  0.1327046366102414  0.4656676706222413  0.0942517845751021   T   T   T
  0.9989340518492003  0.5972575482917575  0.1399344741224174   T   T   T
  0.2000000178749772  0.6000000238188363  0.0000000000000000   F   F   F
  0.0665818609586503  0.7330182683836672  0.0471774736716631   T   T   T
  0.3309861624058142  0.4654143611674280  0.0938981850293121   T   T   T
  0.1993030254686214  0.5996248737671553  0.1405907804673110   T   T   T
  0.2000000029901230  0.4000000059802389  0.0000000000000000   F   F   F
  0.0663938862557091  0.5327735826558632  0.0472715936108651   T   T   T
  0.3333182298177810  0.6667555259469831  0.0941407356628530   T   T   T
  0.1971401551645610  0.3944950807427182  0.1412618482436668   T   T   T
  0.4000000059592921  0.4000000059802389  0.0000000000000000   F   F   F
  0.6672629922922996  0.5334140558957732  0.0472904063263775   T   T   T
  0.5344743307752554  0.6672569217273528  0.0941884427067420   T   T   T
  0.4028116405360431  0.4018808515913127  0.1399991951756602   T   T   T
  0.4000000357444407  0.6000000238188363  0.0000000000000000   F   F   F
  0.6666505227745247  0.7333061776642855  0.0474078645591304   T   T   T
  0.5359114571799219  0.4696823549241244  0.0938607731281671   T   T   T
  0.4006602855638706  0.5998984584943394  0.1405361395489162   T   T   T
  0.6000000238133225  0.6000000238188363  0.0000000000000000   F   F   F
  0.4663644381352980  0.7333667562097961  0.0471410815327694   T   T   T
  0.7350723865114015  0.4690188896743100  0.0943863590039657   T   T   T
  0.6040010756696904  0.6033084863013187  0.1419654798906340   T   T   T
  0.6000000238287555  0.4000000059802389  0.0000000000000000   F   F   F
  0.4672593799777258  0.5336929007994452  0.0472622974175608   T   T   T
  0.7361706563230374  0.6711299644917508  0.0941790427873216   T   T   T
  0.5994435696740453  0.3996753579997015  0.1407667394118043   T   T   T
  0.8000000118976374  0.4000000059802389  0.0000000000000000   F   F   F
  0.9353799613524650  0.6703626648634060  0.0943974656306844   T   T   T
  0.8000202110832888  0.4007605203903395  0.1408194491476717   T   T   T
  0.8000000118822044  0.6000000238188363  0.0000000000000000   F   F   F
  0.9336786071679628  0.4640607477903899  0.0938736331934243   T   T   T
  0.8025568329727888  0.6057913697735012  0.1413240993574295   T   T   T
  0.8679132946712564  0.7344051134892925  0.0473864772110462   T   T   T
  0.8663651479655627  0.5337195110338832  0.0474591529253703   T   T   T
  0.0000000000419007  0.8000000119604849  0.0000000000000000   F   F   F
  0.2668265169854002  0.9334626407387233  0.0474213037673090   T   T   T
  0.0005381358025752  0.8053367514228914  0.1429079006686715   T   T   T
  0.1318229747301161  0.8689758423622643  0.0943943668947015   T   T   T
  0.3329549148473074  0.8674030421595379  0.0941969179926633   T   T   T
  0.2000000030110698  0.8000000119604849  0.0000000000000000   F   F   F
  0.0672149926868761  0.9337919780474641  0.0473624114453483   T   T   T
  0.1973049273999853  0.8030689625902784  0.1411658961113134   T   T   T
  0.4000000059802389  0.8000000119604849  0.0000000000000000   F   F   F
  0.6664134897490929  0.9335125812666160  0.0471739622474942   T   T   T
  0.4003440124648319  0.8009294555051099  0.1405512539299643   T   T   T
  0.5346820091198929  0.8658283447700205  0.0938682296301946   T   T   T
  0.7371366004353892  0.8684878869900959  0.0943842964348111   T   T   T
  0.6000000238497023  0.8000000119604849  0.0000000000000000   F   F   F
  0.4663929924898017  0.9337109098431213  0.0472464523169391   T   T   T
  0.6057685807815461  0.8028718661830302  0.1411663156041060   T   T   T
  0.8000000119185842  0.8000000119604849  0.0000000000000000   F   F   F
  0.8024921345399816  0.8023237581413729  0.1447899017668650   T   T   T
  0.9331447116184117  0.8695549688831317  0.0950557129452251   T   T   T
  0.8666052202765758  0.9329682235722604  0.0473616936159403   T   T   T
  0.1094121304389923  0.1716795946734773  0.2302608080303279   T   T   T
  0.0612934414421072  0.3943910623151923  0.2298817021426203   T   T   T
  0.1717550472785757  0.1089765492600814  0.2301920296029772   T   T   T
  0.3942522252334568  0.0605204903197804  0.2296695123725552   T   T   T
  0.1759677563404892  0.9992701748140610  0.1978027224598432   T   T   T
  0.2370059835306881  0.9995080111325254  0.2253602707026810   T   T   T
  0.2760058947265580  0.2757080821875599  0.1853086932834578   T   T   T
  0.2552752897125006  0.2549035162932323  0.2176067619622967   T   T   T
  0.9999698038556777  0.1766382928567303  0.1979596066677018   T   T   T
  0.0001348767756070  0.2373040047806091  0.2255832540134151   T   T   T
  0.6077024534161889  0.1621442288688262  0.2017601790837331   T   T   T
  0.5546415695402337  0.3923860078043773  0.2017496861017628   T   T   T
  0.4268496886692196  0.3201793736492731  0.2005638983246140   T   T   T
  0.6794914071305594  0.1061653963581620  0.2004794647516303   T   T   T
  0.8900801118600457  0.0624811690290455  0.2302363375144821   T   T   T
  0.7236356353333157  0.9994575465951079  0.1851851411780851   T   T   T
  0.7443157829422827  0.9997034940892903  0.2175095663430972   T   T   T
  0.8900859168312438  0.3427887942177789  0.1876356783738869   T   T   T
  0.7824389753589931  0.2734873613767216  0.2030087212345707   T   T   T
  0.4534092817967489  0.1102202144665162  0.1875414122643640   T   T   T
  0.4917726509878887  0.2177746498285427  0.2029622287743096   T   T   T
  0.3205943780908815  0.4264917361834216  0.2004416784664388   T   T   T
  0.1056679109300116  0.6785470718654687  0.2002710818742218   T   T   T
  0.0622587712496108  0.8895006300056383  0.2301369650761474   T   T   T
  0.1617639665266132  0.6068557776362568  0.2015180551655495   T   T   T
  0.3925569950019819  0.5543266294984930  0.2014749722599944   T   T   T
  0.1100096412086758  0.4523247458373230  0.1875330206826027   T   T   T
  0.2179720814279492  0.4912530503903590  0.2027825086579670   T   T   T
  0.3422877718879141  0.8894542087031834  0.1873533484191007   T   T   T
  0.2731879608600469  0.7816535030588426  0.2026667818053943   T   T   T
  0.9992896355438737  0.7231218218963562  0.1851005673932883   T   T   T
  0.9993721841093414  0.7436888417800197  0.2174225648052515   T   T   T
  0.8374557241716915  0.4445359271846369  0.2017992152283952   T   T   T
  0.6053952245255555  0.6664851025602322  0.2295815755932988   T   T   T
  0.5728560313535738  0.8935216389441135  0.2003639406427694   T   T   T
  0.4450339118173168  0.8375972900651251  0.2014991027869064   T   T   T
  0.6663318453116719  0.6055552076787107  0.2296409681978571   T   T   T
  0.8930367678941037  0.5722629536048205  0.2003981417734932   T   T   T
  0.6570613683762360  0.5465852425697828  0.1874761352609739   T   T   T
  0.7259555204221595  0.5078552276959061  0.2029040011876182   T   T   T
  0.8235850132837249  0.8238002525482812  0.1978536470964962   T   T   T
  0.7625963764244152  0.7627266897702486  0.2253845252972538   T   T   T
  0.5469892126108471  0.6571262780709933  0.1873336149619439   T   T   T
  0.5081944628601998  0.7261404983334454  0.2026657940911799   T   T   T
  0.9394726499226854  0.3335404791062284  0.2299277798900015   T   T   T
  0.9372440288555003  0.8272316713451419  0.2301639810676801   T   T   T
  0.3331475517569418  0.9386430292431664  0.2296190938820064   T   T   T
  0.8276966536884736  0.9374374155745214  0.2302327211706387   T   T   T
  0.1712484484137360  0.9993124656746526  0.2176830551807533   T   T   T
  0.3081408387283003  0.3077596140237910  0.2028941968093833   T   T   T
  0.9998590650142025  0.1716109182463016  0.2178335346609725   T   T   T
  0.3326084267090330  0.9995810315923308  0.2381639200508392   T   T   T
  0.1771646014276240  0.1767929134349989  0.2358264582798108   T   T   T
  0.0004189815319568  0.3329803082899043  0.2384648030327882   T   T   T
  0.6915054986770446  0.9995794838431126  0.2027526397353924   T   T   T
  0.8547553516074199  0.3401365246088400  0.2048203891415631   T   T   T
  0.4861599595777137  0.1454600802522201  0.2047295733206262   T   T   T
  0.8222779376202425 -0.0000968634962709  0.2358041269847827   T   T   T
  0.6780925217149913  0.1724895828874742  0.1964570594367816   T   T   T
  0.4946857045100537  0.3218982129525566  0.1964743386813717   T   T   T
  0.1456704644215491  0.4855715249218425  0.2046368852103674   T   T   T
  0.3397765670653318  0.8539511219468382  0.2044941447050055   T   T   T
  0.9991736063057024  0.6908389073816352  0.2026622919076441   T   T   T
  0.3221937522532226  0.4941660114452667  0.1962055028615080   T   T   T
  0.1718602722965912  0.6770690491982270  0.1961220971165877   T   T   T
  0.9996745635168602  0.8217073574750070  0.2357114893584719   T   T   T
  0.6594506335224637  0.5138228355233774  0.2046718919886400   T   T   T
  0.8283392380320734  0.8283706290752314  0.2177338375483910   T   T   T
  0.5139038811743931  0.6595151519587460  0.2044705964240896   T   T   T
  0.8268450274442340  0.5043361929560456  0.1964030695472427   T   T   T
  0.6669029212096952  0.6671274870240079  0.2381397570114204   T   T   T
  0.5051339559131609  0.8273986493865305  0.1961753914633865   T   T   T
 
  0.00000000E+00  0.00000000E+00  0.00000000E+00
  0.00000000E+00  0.00000000E+00  0.00000000E+00
  0.00000000E+00  0.00000000E+00  0.00000000E+00
  0.00000000E+00  0.00000000E+00  0.00000000E+00
  0.00000000E+00  0.00000000E+00  0.00000000E+00
  0.00000000E+00  0.00000000E+00  0.00000000E+00
  0.00000000E+00  0.00000000E+00  0.00000000E+00
  0.00000000E+00  0.00000000E+00  0.00000000E+00
  0.00000000E+00  0.00000000E+00  0.00000000E+00
  0.00000000E+00  0.00000000E+00  0.00000000E+00
  0.00000000E+00  0.00000000E+00  0.00000000E+00
  0.00000000E+00  0.00000000E+00  0.00000000E+00
  0.00000000E+00  0.00000000E+00  0.00000000E+00
  0.00000000E+00  0.00000000E+00  0.00000000E+00
  0.00000000E+00  0.00000000E+00  0.00000000E+00
  0.00000000E+00  0.00000000E+00  0.00000000E+00
  0.00000000E+00  0.00000000E+00  0.00000000E+00
  0.00000000E+00  0.00000000E+00  0.00000000E+00
  0.00000000E+00  0.00000000E+00  0.00000000E+00
  0.00000000E+00  0.00000000E+00  0.00000000E+00
  0.00000000E+00  0.00000000E+00  0.00000000E+00
  0.00000000E+00  0.00000000E+00  0.00000000E+00
  0.00000000E+00  0.00000000E+00  0.00000000E+00
  0.00000000E+00  0.00000000E+00  0.00000000E+00
  0.00000000E+00  0.00000000E+00  0.00000000E+00
  0.00000000E+00  0.00000000E+00  0.00000000E+00
  0.00000000E+00  0.00000000E+00  0.00000000E+00
  0.00000000E+00  0.00000000E+00  0.00000000E+00
  0.00000000E+00  0.00000000E+00  0.00000000E+00
  0.00000000E+00  0.00000000E+00  0.00000000E+00
  0.00000000E+00  0.00000000E+00  0.00000000E+00
  0.00000000E+00  0.00000000E+00  0.00000000E+00
  0.00000000E+00  0.00000000E+00  0.00000000E+00
  0.00000000E+00  0.00000000E+00  0.00000000E+00
  0.00000000E+00  0.00000000E+00  0.00000000E+00
  0.00000000E+00  0.00000000E+00  0.00000000E+00
  0.00000000E+00  0.00000000E+00  0.00000000E+00
  0.00000000E+00  0.00000000E+00  0.00000000E+00
  0.00000000E+00  0.00000000E+00  0.00000000E+00
  0.00000000E+00  0.00000000E+00  0.00000000E+00
  0.00000000E+00  0.00000000E+00  0.00000000E+00
  0.00000000E+00  0.00000000E+00  0.00000000E+00
  0.00000000E+00  0.00000000E+00  0.00000000E+00
  0.00000000E+00  0.00000000E+00  0.00000000E+00
  0.00000000E+00  0.00000000E+00  0.00000000E+00
  0.00000000E+00  0.00000000E+00  0.00000000E+00
  0.00000000E+00  0.00000000E+00  0.00000000E+00
  0.00000000E+00  0.00000000E+00  0.00000000E+00
  0.00000000E+00  0.00000000E+00  0.00000000E+00
  0.00000000E+00  0.00000000E+00  0.00000000E+00
  0.00000000E+00  0.00000000E+00  0.00000000E+00
  0.00000000E+00  0.00000000E+00  0.00000000E+00
  0.00000000E+00  0.00000000E+00  0.00000000E+00
  0.00000000E+00  0.00000000E+00  0.00000000E+00
  0.00000000E+00  0.00000000E+00  0.00000000E+00
  0.00000000E+00  0.00000000E+00  0.00000000E+00
  0.00000000E+00  0.00000000E+00  0.00000000E+00
  0.00000000E+00  0.00000000E+00  0.00000000E+00
  0.00000000E+00  0.00000000E+00  0.00000000E+00
  0.00000000E+00  0.00000000E+00  0.00000000E+00
  0.00000000E+00  0.00000000E+00  0.00000000E+00
  0.00000000E+00  0.00000000E+00  0.00000000E+00
  0.00000000E+00  0.00000000E+00  0.00000000E+00
  0.00000000E+00  0.00000000E+00  0.00000000E+00
  0.00000000E+00  0.00000000E+00  0.00000000E+00
  0.00000000E+00  0.00000000E+00  0.00000000E+00
  0.00000000E+00  0.00000000E+00  0.00000000E+00
  0.00000000E+00  0.00000000E+00  0.00000000E+00
  0.00000000E+00  0.00000000E+00  0.00000000E+00
  0.00000000E+00  0.00000000E+00  0.00000000E+00
  0.00000000E+00  0.00000000E+00  0.00000000E+00
  0.00000000E+00  0.00000000E+00  0.00000000E+00
  0.00000000E+00  0.00000000E+00  0.00000000E+00
  0.00000000E+00  0.00000000E+00  0.00000000E+00
  0.00000000E+00  0.00000000E+00  0.00000000E+00
  0.00000000E+00  0.00000000E+00  0.00000000E+00
  0.00000000E+00  0.00000000E+00  0.00000000E+00
  0.00000000E+00  0.00000000E+00  0.00000000E+00
  0.00000000E+00  0.00000000E+00  0.00000000E+00
  0.00000000E+00  0.00000000E+00  0.00000000E+00
  0.00000000E+00  0.00000000E+00  0.00000000E+00
  0.00000000E+00  0.00000000E+00  0.00000000E+00
  0.00000000E+00  0.00000000E+00  0.00000000E+00
  0.00000000E+00  0.00000000E+00  0.00000000E+00
  0.00000000E+00  0.00000000E+00  0.00000000E+00
  0.00000000E+00  0.00000000E+00  0.00000000E+00
  0.00000000E+00  0.00000000E+00  0.00000000E+00
  0.00000000E+00  0.00000000E+00  0.00000000E+00
  0.00000000E+00  0.00000000E+00  0.00000000E+00
  0.00000000E+00  0.00000000E+00  0.00000000E+00
  0.00000000E+00  0.00000000E+00  0.00000000E+00
  0.00000000E+00  0.00000000E+00  0.00000000E+00
  0.00000000E+00  0.00000000E+00  0.00000000E+00
  0.00000000E+00  0.00000000E+00  0.00000000E+00
  0.00000000E+00  0.00000000E+00  0.00000000E+00
  0.00000000E+00  0.00000000E+00  0.00000000E+00
  0.00000000E+00  0.00000000E+00  0.00000000E+00
  0.00000000E+00  0.00000000E+00  0.00000000E+00
  0.00000000E+00  0.00000000E+00  0.00000000E+00
  0.00000000E+00  0.00000000E+00  0.00000000E+00
  0.00000000E+00  0.00000000E+00  0.00000000E+00
  0.00000000E+00  0.00000000E+00  0.00000000E+00
  0.00000000E+00  0.00000000E+00  0.00000000E+00
  0.00000000E+00  0.00000000E+00  0.00000000E+00
  0.00000000E+00  0.00000000E+00  0.00000000E+00
  0.00000000E+00  0.00000000E+00  0.00000000E+00
  0.00000000E+00  0.00000000E+00  0.00000000E+00
  0.00000000E+00  0.00000000E+00  0.00000000E+00
  0.00000000E+00  0.00000000E+00  0.00000000E+00
  0.00000000E+00  0.00000000E+00  0.00000000E+00
  0.00000000E+00  0.00000000E+00  0.00000000E+00
  0.00000000E+00  0.00000000E+00  0.00000000E+00
  0.00000000E+00  0.00000000E+00  0.00000000E+00
  0.00000000E+00  0.00000000E+00  0.00000000E+00
  0.00000000E+00  0.00000000E+00  0.00000000E+00
  0.00000000E+00  0.00000000E+00  0.00000000E+00
  0.00000000E+00  0.00000000E+00  0.00000000E+00
  0.00000000E+00  0.00000000E+00  0.00000000E+00
  0.00000000E+00  0.00000000E+00  0.00000000E+00
  0.00000000E+00  0.00000000E+00  0.00000000E+00
  0.00000000E+00  0.00000000E+00  0.00000000E+00
  0.00000000E+00  0.00000000E+00  0.00000000E+00
  0.00000000E+00  0.00000000E+00  0.00000000E+00
  0.00000000E+00  0.00000000E+00  0.00000000E+00
  0.00000000E+00  0.00000000E+00  0.00000000E+00
  0.00000000E+00  0.00000000E+00  0.00000000E+00
  0.00000000E+00  0.00000000E+00  0.00000000E+00
  0.00000000E+00  0.00000000E+00  0.00000000E+00
  0.00000000E+00  0.00000000E+00  0.00000000E+00
  0.00000000E+00  0.00000000E+00  0.00000000E+00
  0.00000000E+00  0.00000000E+00  0.00000000E+00
  0.00000000E+00  0.00000000E+00  0.00000000E+00
  0.00000000E+00  0.00000000E+00  0.00000000E+00
  0.00000000E+00  0.00000000E+00  0.00000000E+00
  0.00000000E+00  0.00000000E+00  0.00000000E+00
  0.00000000E+00  0.00000000E+00  0.00000000E+00
  0.00000000E+00  0.00000000E+00  0.00000000E+00
  0.00000000E+00  0.00000000E+00  0.00000000E+00
  0.00000000E+00  0.00000000E+00  0.00000000E+00
  0.00000000E+00  0.00000000E+00  0.00000000E+00
  0.00000000E+00  0.00000000E+00  0.00000000E+00
  0.00000000E+00  0.00000000E+00  0.00000000E+00
  0.00000000E+00  0.00000000E+00  0.00000000E+00
  0.00000000E+00  0.00000000E+00  0.00000000E+00
  0.00000000E+00  0.00000000E+00  0.00000000E+00
  0.00000000E+00  0.00000000E+00  0.00000000E+00
  0.00000000E+00  0.00000000E+00  0.00000000E+00
  0.00000000E+00  0.00000000E+00  0.00000000E+00
  0.00000000E+00  0.00000000E+00  0.00000000E+00
  0.00000000E+00  0.00000000E+00  0.00000000E+00
  0.00000000E+00  0.00000000E+00  0.00000000E+00
  0.00000000E+00  0.00000000E+00  0.00000000E+00
  0.00000000E+00  0.00000000E+00  0.00000000E+00
  0.00000000E+00  0.00000000E+00  0.00000000E+00
  0.00000000E+00  0.00000000E+00  0.00000000E+00
  0.00000000E+00  0.00000000E+00  0.00000000E+00
  0.00000000E+00  0.00000000E+00  0.00000000E+00
  0.00000000E+00  0.00000000E+00  0.00000000E+00
  0.00000000E+00  0.00000000E+00  0.00000000E+00
  0.00000000E+00  0.00000000E+00  0.00000000E+00
  0.00000000E+00  0.00000000E+00  0.00000000E+00
  0.00000000E+00  0.00000000E+00  0.00000000E+00
  0.00000000E+00  0.00000000E+00  0.00000000E+00
  0.00000000E+00  0.00000000E+00  0.00000000E+00
  0.00000000E+00  0.00000000E+00  0.00000000E+00
  0.00000000E+00  0.00000000E+00  0.00000000E+00
  0.00000000E+00  0.00000000E+00  0.00000000E+00
  0.00000000E+00  0.00000000E+00  0.00000000E+00
  0.00000000E+00  0.00000000E+00  0.00000000E+00
  0.00000000E+00  0.00000000E+00  0.00000000E+00
  0.00000000E+00  0.00000000E+00  0.00000000E+00
  0.00000000E+00  0.00000000E+00  0.00000000E+00
