au_111_4_layers_5x5_with_h2o_6_bilayers_
   1.00000000000000     
    14.6976995467999991    0.0000000000000000    0.0000000000000000
    -7.3488497733999996   12.7285811846999994    0.0000000000000000
     0.0000000000000000    0.0000000000000000   49.2004013061999999
   Au   H    O 
   100    48    24
Selective dynamics
Direct
  0.0000000000000000  0.0000000000000000  0.0000000000000000   F   F   F
  0.2658543842597692  0.1336430474166852  0.0474139361908105   T   T   T
  0.1313037125809622  0.2634648495158233  0.0944130023878884   T   T   T
  0.0001418644546856  0.0001613712456850  0.1458613814917791   T   T   T
  0.9999999999764526  0.2000000029901230  0.0000000000000000   F   F   F
  0.2670637882972373  0.3336015710067252  0.0472050874988935   T   T   T
  0.1308355579047844  0.0638710514708102  0.0949890412694931   T   T   T
 -0.0002891728903732  0.1978513344362316  0.1447032951506749   T   T   T
  0.2000000030136633  0.2000000029901230  0.0000000000000000   F   F   F
  0.0666628148591211  0.3336283121149751  0.0474723667931944   T   T   T
  0.3293606396269452  0.0654277492538911  0.0942120491283838   T   T   T
  0.1949517633311268  0.1955520505237060  0.1427303330292614   T   T   T
  0.2000000029691691  0.0000000000000000  0.0000000000000000   F   F   F
  0.0663549622551968  0.1336354262025391  0.0473938867324013   T   T   T
  0.3301081613886455  0.2654110963882669  0.0944492293957435   T   T   T
  0.1983065985867960  0.0006385129465510  0.1446872174312424   T   T   T
  0.4000000059383453  0.0000000000000000  0.0000000000000000   F   F   F
  0.6675737209132374  0.1339732879958639  0.0474954680907078   T   T   T
  0.5315683948224046  0.2661374993722514  0.0944525452056183   T   T   T
  0.3972967931435198  0.0011353973941131  0.1419439697870216   T   T   T
  0.4000000059828395  0.2000000029901230  0.0000000000000000   F   F   F
  0.6667200332749531  0.3333883007581535  0.0476678605404600   T   T   T
  0.5308219773518160  0.0665441869684745  0.0938994000492067   T   T   T
  0.3947977834575189  0.1971826603761014  0.1413743248631831   T   T   T
  0.6000000238523029  0.2000000029901230  0.0000000000000000   F   F   F
  0.4664025919731893  0.3325880270593560  0.0474978392172592   T   T   T
  0.7348191018945177  0.0648858601727407  0.0944513580990781   T   T   T
  0.6011124238576618  0.2001684964022307  0.1408628287431197   T   T   T
  0.6000000238758432  0.0000000000000000  0.0000000000000000   F   F   F
  0.4667926460580259  0.1339312466829357  0.0473208333750022   T   T   T
  0.7342358246262375  0.2656427025508297  0.0944663063676753   T   T   T
  0.5983129112811597  0.0010821914529870  0.1400613339313436   T   T   T
  0.8000000119447250  0.0000000000000000  0.0000000000000000   F   F   F
  0.9347518571641462  0.2640617592068249  0.0942068753569287   T   T   T
  0.8047070524709132 -0.0004187534766468  0.1427444163825484   T   T   T
  0.7999999523200216  0.2000000029901230  0.0000000000000000   F   F   F
  0.9362897464102690  0.0671227568108859  0.0949981928097358   T   T   T
  0.8032606677548999  0.1978425485115225  0.1413848378689888   T   T   T
  0.8662444620273508  0.3330094419011805  0.0473080750620915   T   T   T
  0.8664595612006354  0.1322567782746809  0.0474104806003576   T   T   T
  0.0000000000209468  0.4000000059802389  0.0000000000000000   F   F   F
  0.2670527996680123  0.5337024108168380  0.0471851948359181   T   T   T
  0.1345846521954051  0.6693054090705292  0.0939382421986608   T   T   T
 -0.0007514115844148  0.3963076094634119  0.1419670280942379   T   T   T
  0.0000000000055138  0.6000000238188363  0.0000000000000000   F   F   F
  0.2667068840599193  0.7330972373253917  0.0471792732641460   T   T   T
  0.1329155577695523  0.4661782624827596  0.0942688791627407   T   T   T
 -0.0007263533390504  0.5976030332667944  0.1400166532155248   T   T   T
  0.2000000178749772  0.6000000238188363  0.0000000000000000   F   F   F
  0.0665761520796170  0.7330451297986306  0.0471970880493038   T   T   T
  0.3309935486594414  0.4654043624914274  0.0939454194570098   T   T   T
  0.1992606346610466  0.5997479664773357  0.1406846217570156   T   T   T
  0.2000000029901230  0.4000000059802389  0.0000000000000000   F   F   F
  0.0664514907056264  0.5329042118610239  0.0472930767372938   T   T   T
  0.3334094665732759  0.6667806884478703  0.0942385400851238   T   T   T
  0.1969891137426832  0.3945526371277689  0.1412477703510453   T   T   T
  0.4000000059592921  0.4000000059802389  0.0000000000000000   F   F   F
  0.6670926858740731  0.5332679922414774  0.0473155491835529   T   T   T
  0.5340417692056255  0.6668911531789303  0.0942526518048051   T   T   T
  0.4027840342775299  0.4018686185482451  0.1400877617347397   T   T   T
  0.4000000357444407  0.6000000238188363  0.0000000000000000   F   F   F
  0.6664726113771390  0.7331299472960643  0.0474572016554472   T   T   T
  0.5356972654530089  0.4693891254365511  0.0939070139528076   T   T   T
  0.4004261208353773  0.5996970249087288  0.1406666893933789   T   T   T
  0.6000000238133225  0.6000000238188363  0.0000000000000000   F   F   F
  0.4663673424596603  0.7334089039946677  0.0471797217131044   T   T   T
  0.7347284535405597  0.4687188060763516  0.0944326872953728   T   T   T
  0.6038565232525741  0.6031119091357730  0.1419638707127058   T   T   T
  0.6000000238287555  0.4000000059802389  0.0000000000000000   F   F   F
  0.4672033112752140  0.5335889949439553  0.0472857594334269   T   T   T
  0.7360092097447762  0.6707490624226977  0.0941883860143919   T   T   T
  0.5993200247660810  0.3994518744933822  0.1408508271243079   T   T   T
  0.8000000118976374  0.4000000059802389  0.0000000000000000   F   F   F
  0.9353429378191961  0.6701152823592190  0.0944197618563175   T   T   T
  0.8003687440831714  0.4013162766437270  0.1408875850991032   T   T   T
  0.8000000118822044  0.6000000238188363  0.0000000000000000   F   F   F
  0.9337922531293049  0.4644085091853150  0.0939093787654369   T   T   T
  0.8024377639481935  0.6057150118484915  0.1413343608102076   T   T   T
  0.8677745800083559  0.7342157612295701  0.0474100426806650   T   T   T
  0.8662414594935663  0.5336741857202951  0.0474941901035005   T   T   T
  0.0000000000419007  0.8000000119604849  0.0000000000000000   F   F   F
  0.2670074368381343  0.9335085029630733  0.0474663080348547   T   T   T
  0.0006862872005381  0.8053558104998046  0.1427387269099282   T   T   T
  0.1321690991272597  0.8689446846820503  0.0943834849705385   T   T   T
  0.3334421285842031  0.8674364700847744  0.0942393926706683   T   T   T
  0.2000000030110698  0.8000000119604849  0.0000000000000000   F   F   F
  0.0672355275298783  0.9337308501971443  0.0473770123219438   T   T   T
  0.1978026025827342  0.8034904400816033  0.1411963816241919   T   T   T
  0.4000000059802389  0.8000000119604849  0.0000000000000000   F   F   F
  0.6664871977885014  0.9335420179871285  0.0472074556825145   T   T   T
  0.4004992148412606  0.8008698450257330  0.1406651498251485   T   T   T
  0.5348100338324067  0.8658027943014019  0.0939401145039571   T   T   T
  0.7367295897396355  0.8680355192824307  0.0944094855887929   T   T   T
  0.6000000238497023  0.8000000119604849  0.0000000000000000   F   F   F
  0.4665682526628580  0.9337809303078405  0.0472779221430360   T   T   T
  0.6055894929229203  0.8025824439023476  0.1412283185030712   T   T   T
  0.8000000119185842  0.8000000119604849  0.0000000000000000   F   F   F
  0.8023297840913349  0.8020477457112684  0.1446818559189987   T   T   T
  0.9329723191043091  0.8692874886090903  0.0949927000437098   T   T   T
  0.8664666284865372  0.9327950144623272  0.0473909802302495   T   T   T
  0.1103831153684781  0.1728166283899253  0.2306520791763382   T   T   T
  0.0613161002648267  0.3953789695692591  0.2301630750959964   T   T   T
  0.1729522049425874  0.1099491169612795  0.2306047262153296   T   T   T
  0.3954356381058374  0.0606072290332058  0.2298999767805997   T   T   T
  0.1757983669042486 -0.0007862642680301  0.1984412155281168   T   T   T
  0.2374574507925781 -0.0005094738605932  0.2258644552197024   T   T   T
  0.2746434408282795  0.2743731950244441  0.1850996716856294   T   T   T
  0.2538138492611743  0.2534165768069523  0.2176556982728829   T   T   T
 -0.0000316440165027  0.1764504133006212  0.1985421824634842   T   T   T
  0.0000825316648531  0.2376337523358601  0.2260497991530281   T   T   T
  0.6090414030980766  0.1621264315528663  0.2012111245634626   T   T   T
  0.5527684650861531  0.3909406224585907  0.2012434695346064   T   T   T
  0.4247524682195274  0.3185646654455962  0.2000958860177056   T   T   T
  0.6809557212030087  0.1060613645226410  0.1999706029113920   T   T   T
  0.8888713559978479  0.0628602784590435  0.2305973870664620   T   T   T
  0.7247064219951664 -0.0002692045611696  0.1849653975206191   T   T   T
  0.7455493019499015 -0.0000225099653360  0.2175441979190443   T   T   T
  0.8913017458339106  0.3444701515504826  0.1876332990866025   T   T   T
  0.7829782655742498  0.2746061450456007  0.2026026051493572   T   T   T
  0.4535650723608526  0.1090670451448367  0.1875599244392036   T   T   T
  0.4920059840433413  0.2173118703928923  0.2025794184259717   T   T   T
  0.3191451465128370  0.4244497166670131  0.1999930743020801   T   T   T
  0.1053420251055795  0.6799355878491350  0.1998321991871937   T   T   T
  0.0625841823285840  0.8884673428737071  0.2305562579587763   T   T   T
  0.1615235686316359  0.6080998225002063  0.2009951330294522   T   T   T
  0.3912456502054071  0.5525002327266917  0.2010028891848872   T   T   T
  0.1088733230456519  0.4522436328325871  0.1875828329103303   T   T   T
  0.2175515443962854  0.4914506892138008  0.2024256377510867   T   T   T
  0.3436053394174899  0.8906328132346827  0.1873814247466186   T   T   T
  0.2740809733748233  0.7820639765141049  0.2022766144167847   T   T   T
 -0.0004040044120300  0.7244266906814302  0.1849329628295965   T   T   T
 -0.0004805314322938  0.7451036826566491  0.2175070361638203   T   T   T
  0.8376811195248259  0.4464709325593806  0.2012767840771942   T   T   T
  0.6046156096131973  0.6657472477825933  0.2299463219585258   T   T   T
  0.5748142162877508  0.8939849350122108  0.1998927295774052   T   T   T
  0.4467867374882971  0.8378370691940215  0.2009429338334808   T   T   T
  0.6655818974268476  0.6047436102100187  0.2299612525639068   T   T   T
  0.8934094214436508  0.5743994911810933  0.1999514262887871   T   T   T
  0.6553850847529586  0.5464102755462898  0.1875610122634489   T   T   T
  0.7249369189926435  0.5076255761674801  0.2025586441048474   T   T   T
  0.8240023105581101  0.8243619170269673  0.1984656828999872   T   T   T
  0.7625638937714377  0.7627407524892184  0.2258811065311617   T   T   T
  0.5470050223242103  0.6557192148885285  0.1874780310538224   T   T   T
  0.5079301073252228  0.7252317842755280  0.2023603939851200   T   T   T
  0.9393602781238366  0.3345449037040475  0.2301648682799037   T   T   T
  0.9372078969649933  0.8261211119648927  0.2305607453466482   T   T   T
  0.3343062122831642  0.9385810956678352  0.2298741804465660   T   T   T
  0.8263048904138954  0.9374736917642653  0.2306109829565185   T   T   T
  0.1713101334564023 -0.0007171746291272  0.2182991822248654   T   T   T
  0.3074216305570334  0.3070025258214049  0.2025635923734149   T   T   T
 -0.0001731808147784  0.1715876169634586  0.2183992341020112   T   T   T
  0.3329612857979399 -0.0003984439223608  0.2379668256282031   T   T   T
  0.1791592193766738  0.1787943314369774  0.2354805858156647   T   T   T
  0.0002976569505796  0.3330918206593252  0.2382860031624013   T   T   T
  0.6919689409017865 -0.0001297617057149  0.2024120977048915   T   T   T
  0.8544975971763981  0.3419751003555633  0.2045217512678095   T   T   T
  0.4880370066279897  0.1458285207930941  0.2044398528415466   T   T   T
  0.8200231792410340  0.0001222787148664  0.2354218105350030   T   T   T
  0.6792748814503839  0.1723297844879798  0.1957325781524991   T   T   T
  0.4928414562454255  0.3206263239053164  0.1957873303718592   T   T   T
  0.1460391468276495  0.4873212939564938  0.2043663555235993   T   T   T
  0.3414291330816380  0.8535702242947760  0.2041929482280086   T   T   T
 -0.0006426753456526  0.6914929805407860  0.2023778227438938   T   T   T
  0.3210826000860604  0.4923643856981566  0.1955535303793634   T   T   T
  0.1714315902148531  0.6781456551161226  0.1954551616640456   T   T   T
 -0.0002412944736241  0.8196805177527916  0.2353784396974100   T   T   T
  0.6576107376824130  0.5118956606594337  0.2044399127072952   T   T   T
  0.8286058343814380  0.8287767587656566  0.2183268790866610   T   T   T
  0.5120463959374134  0.6578389695473170  0.2042827540285235   T   T   T
  0.8272343994559970  0.5062872215324536  0.1957402125021449   T   T   T
  0.6671050416315902  0.6672655068358416  0.2380122393272970   T   T   T
  0.5069479409810014  0.8278472361853176  0.1955072546814426   T   T   T
 
  0.00000000E+00  0.00000000E+00  0.00000000E+00
  0.00000000E+00  0.00000000E+00  0.00000000E+00
  0.00000000E+00  0.00000000E+00  0.00000000E+00
  0.00000000E+00  0.00000000E+00  0.00000000E+00
  0.00000000E+00  0.00000000E+00  0.00000000E+00
  0.00000000E+00  0.00000000E+00  0.00000000E+00
  0.00000000E+00  0.00000000E+00  0.00000000E+00
  0.00000000E+00  0.00000000E+00  0.00000000E+00
  0.00000000E+00  0.00000000E+00  0.00000000E+00
  0.00000000E+00  0.00000000E+00  0.00000000E+00
  0.00000000E+00  0.00000000E+00  0.00000000E+00
  0.00000000E+00  0.00000000E+00  0.00000000E+00
  0.00000000E+00  0.00000000E+00  0.00000000E+00
  0.00000000E+00  0.00000000E+00  0.00000000E+00
  0.00000000E+00  0.00000000E+00  0.00000000E+00
  0.00000000E+00  0.00000000E+00  0.00000000E+00
  0.00000000E+00  0.00000000E+00  0.00000000E+00
  0.00000000E+00  0.00000000E+00  0.00000000E+00
  0.00000000E+00  0.00000000E+00  0.00000000E+00
  0.00000000E+00  0.00000000E+00  0.00000000E+00
  0.00000000E+00  0.00000000E+00  0.00000000E+00
  0.00000000E+00  0.00000000E+00  0.00000000E+00
  0.00000000E+00  0.00000000E+00  0.00000000E+00
  0.00000000E+00  0.00000000E+00  0.00000000E+00
  0.00000000E+00  0.00000000E+00  0.00000000E+00
  0.00000000E+00  0.00000000E+00  0.00000000E+00
  0.00000000E+00  0.00000000E+00  0.00000000E+00
  0.00000000E+00  0.00000000E+00  0.00000000E+00
  0.00000000E+00  0.00000000E+00  0.00000000E+00
  0.00000000E+00  0.00000000E+00  0.00000000E+00
  0.00000000E+00  0.00000000E+00  0.00000000E+00
  0.00000000E+00  0.00000000E+00  0.00000000E+00
  0.00000000E+00  0.00000000E+00  0.00000000E+00
  0.00000000E+00  0.00000000E+00  0.00000000E+00
  0.00000000E+00  0.00000000E+00  0.00000000E+00
  0.00000000E+00  0.00000000E+00  0.00000000E+00
  0.00000000E+00  0.00000000E+00  0.00000000E+00
  0.00000000E+00  0.00000000E+00  0.00000000E+00
  0.00000000E+00  0.00000000E+00  0.00000000E+00
  0.00000000E+00  0.00000000E+00  0.00000000E+00
  0.00000000E+00  0.00000000E+00  0.00000000E+00
  0.00000000E+00  0.00000000E+00  0.00000000E+00
  0.00000000E+00  0.00000000E+00  0.00000000E+00
  0.00000000E+00  0.00000000E+00  0.00000000E+00
  0.00000000E+00  0.00000000E+00  0.00000000E+00
  0.00000000E+00  0.00000000E+00  0.00000000E+00
  0.00000000E+00  0.00000000E+00  0.00000000E+00
  0.00000000E+00  0.00000000E+00  0.00000000E+00
  0.00000000E+00  0.00000000E+00  0.00000000E+00
  0.00000000E+00  0.00000000E+00  0.00000000E+00
  0.00000000E+00  0.00000000E+00  0.00000000E+00
  0.00000000E+00  0.00000000E+00  0.00000000E+00
  0.00000000E+00  0.00000000E+00  0.00000000E+00
  0.00000000E+00  0.00000000E+00  0.00000000E+00
  0.00000000E+00  0.00000000E+00  0.00000000E+00
  0.00000000E+00  0.00000000E+00  0.00000000E+00
  0.00000000E+00  0.00000000E+00  0.00000000E+00
  0.00000000E+00  0.00000000E+00  0.00000000E+00
  0.00000000E+00  0.00000000E+00  0.00000000E+00
  0.00000000E+00  0.00000000E+00  0.00000000E+00
  0.00000000E+00  0.00000000E+00  0.00000000E+00
  0.00000000E+00  0.00000000E+00  0.00000000E+00
  0.00000000E+00  0.00000000E+00  0.00000000E+00
  0.00000000E+00  0.00000000E+00  0.00000000E+00
  0.00000000E+00  0.00000000E+00  0.00000000E+00
  0.00000000E+00  0.00000000E+00  0.00000000E+00
  0.00000000E+00  0.00000000E+00  0.00000000E+00
  0.00000000E+00  0.00000000E+00  0.00000000E+00
  0.00000000E+00  0.00000000E+00  0.00000000E+00
  0.00000000E+00  0.00000000E+00  0.00000000E+00
  0.00000000E+00  0.00000000E+00  0.00000000E+00
  0.00000000E+00  0.00000000E+00  0.00000000E+00
  0.00000000E+00  0.00000000E+00  0.00000000E+00
  0.00000000E+00  0.00000000E+00  0.00000000E+00
  0.00000000E+00  0.00000000E+00  0.00000000E+00
  0.00000000E+00  0.00000000E+00  0.00000000E+00
  0.00000000E+00  0.00000000E+00  0.00000000E+00
  0.00000000E+00  0.00000000E+00  0.00000000E+00
  0.00000000E+00  0.00000000E+00  0.00000000E+00
  0.00000000E+00  0.00000000E+00  0.00000000E+00
  0.00000000E+00  0.00000000E+00  0.00000000E+00
  0.00000000E+00  0.00000000E+00  0.00000000E+00
  0.00000000E+00  0.00000000E+00  0.00000000E+00
  0.00000000E+00  0.00000000E+00  0.00000000E+00
  0.00000000E+00  0.00000000E+00  0.00000000E+00
  0.00000000E+00  0.00000000E+00  0.00000000E+00
  0.00000000E+00  0.00000000E+00  0.00000000E+00
  0.00000000E+00  0.00000000E+00  0.00000000E+00
  0.00000000E+00  0.00000000E+00  0.00000000E+00
  0.00000000E+00  0.00000000E+00  0.00000000E+00
  0.00000000E+00  0.00000000E+00  0.00000000E+00
  0.00000000E+00  0.00000000E+00  0.00000000E+00
  0.00000000E+00  0.00000000E+00  0.00000000E+00
  0.00000000E+00  0.00000000E+00  0.00000000E+00
  0.00000000E+00  0.00000000E+00  0.00000000E+00
  0.00000000E+00  0.00000000E+00  0.00000000E+00
  0.00000000E+00  0.00000000E+00  0.00000000E+00
  0.00000000E+00  0.00000000E+00  0.00000000E+00
  0.00000000E+00  0.00000000E+00  0.00000000E+00
  0.00000000E+00  0.00000000E+00  0.00000000E+00
  0.00000000E+00  0.00000000E+00  0.00000000E+00
  0.00000000E+00  0.00000000E+00  0.00000000E+00
  0.00000000E+00  0.00000000E+00  0.00000000E+00
  0.00000000E+00  0.00000000E+00  0.00000000E+00
  0.00000000E+00  0.00000000E+00  0.00000000E+00
  0.00000000E+00  0.00000000E+00  0.00000000E+00
  0.00000000E+00  0.00000000E+00  0.00000000E+00
  0.00000000E+00  0.00000000E+00  0.00000000E+00
  0.00000000E+00  0.00000000E+00  0.00000000E+00
  0.00000000E+00  0.00000000E+00  0.00000000E+00
  0.00000000E+00  0.00000000E+00  0.00000000E+00
  0.00000000E+00  0.00000000E+00  0.00000000E+00
  0.00000000E+00  0.00000000E+00  0.00000000E+00
  0.00000000E+00  0.00000000E+00  0.00000000E+00
  0.00000000E+00  0.00000000E+00  0.00000000E+00
  0.00000000E+00  0.00000000E+00  0.00000000E+00
  0.00000000E+00  0.00000000E+00  0.00000000E+00
  0.00000000E+00  0.00000000E+00  0.00000000E+00
  0.00000000E+00  0.00000000E+00  0.00000000E+00
  0.00000000E+00  0.00000000E+00  0.00000000E+00
  0.00000000E+00  0.00000000E+00  0.00000000E+00
  0.00000000E+00  0.00000000E+00  0.00000000E+00
  0.00000000E+00  0.00000000E+00  0.00000000E+00
  0.00000000E+00  0.00000000E+00  0.00000000E+00
  0.00000000E+00  0.00000000E+00  0.00000000E+00
  0.00000000E+00  0.00000000E+00  0.00000000E+00
  0.00000000E+00  0.00000000E+00  0.00000000E+00
  0.00000000E+00  0.00000000E+00  0.00000000E+00
  0.00000000E+00  0.00000000E+00  0.00000000E+00
  0.00000000E+00  0.00000000E+00  0.00000000E+00
  0.00000000E+00  0.00000000E+00  0.00000000E+00
  0.00000000E+00  0.00000000E+00  0.00000000E+00
  0.00000000E+00  0.00000000E+00  0.00000000E+00
  0.00000000E+00  0.00000000E+00  0.00000000E+00
  0.00000000E+00  0.00000000E+00  0.00000000E+00
  0.00000000E+00  0.00000000E+00  0.00000000E+00
  0.00000000E+00  0.00000000E+00  0.00000000E+00
  0.00000000E+00  0.00000000E+00  0.00000000E+00
  0.00000000E+00  0.00000000E+00  0.00000000E+00
  0.00000000E+00  0.00000000E+00  0.00000000E+00
  0.00000000E+00  0.00000000E+00  0.00000000E+00
  0.00000000E+00  0.00000000E+00  0.00000000E+00
  0.00000000E+00  0.00000000E+00  0.00000000E+00
  0.00000000E+00  0.00000000E+00  0.00000000E+00
  0.00000000E+00  0.00000000E+00  0.00000000E+00
  0.00000000E+00  0.00000000E+00  0.00000000E+00
  0.00000000E+00  0.00000000E+00  0.00000000E+00
  0.00000000E+00  0.00000000E+00  0.00000000E+00
  0.00000000E+00  0.00000000E+00  0.00000000E+00
  0.00000000E+00  0.00000000E+00  0.00000000E+00
  0.00000000E+00  0.00000000E+00  0.00000000E+00
  0.00000000E+00  0.00000000E+00  0.00000000E+00
  0.00000000E+00  0.00000000E+00  0.00000000E+00
  0.00000000E+00  0.00000000E+00  0.00000000E+00
  0.00000000E+00  0.00000000E+00  0.00000000E+00
  0.00000000E+00  0.00000000E+00  0.00000000E+00
  0.00000000E+00  0.00000000E+00  0.00000000E+00
  0.00000000E+00  0.00000000E+00  0.00000000E+00
  0.00000000E+00  0.00000000E+00  0.00000000E+00
  0.00000000E+00  0.00000000E+00  0.00000000E+00
  0.00000000E+00  0.00000000E+00  0.00000000E+00
  0.00000000E+00  0.00000000E+00  0.00000000E+00
  0.00000000E+00  0.00000000E+00  0.00000000E+00
  0.00000000E+00  0.00000000E+00  0.00000000E+00
  0.00000000E+00  0.00000000E+00  0.00000000E+00
  0.00000000E+00  0.00000000E+00  0.00000000E+00
  0.00000000E+00  0.00000000E+00  0.00000000E+00
  0.00000000E+00  0.00000000E+00  0.00000000E+00
  0.00000000E+00  0.00000000E+00  0.00000000E+00
  0.00000000E+00  0.00000000E+00  0.00000000E+00
  0.00000000E+00  0.00000000E+00  0.00000000E+00
  0.00000000E+00  0.00000000E+00  0.00000000E+00
