bilayer_4                               
   1.00000000000000     
    14.6976995467999991    0.0000000000000000    0.0000000000000000
    -7.3488497733999996   12.7285811846999994    0.0000000000000000
     0.0000000000000000    0.0000000000000000   49.2004013061999999
   H    O 
   192    96
Selective dynamics
Direct
  0.1677993415238917  0.0629004790835857  0.2924759262087800
  0.1676627554760780  0.0632950645077507  0.4486717228953277
  0.3951011375700824  0.3322006734026642  0.2924759262087800
  0.3956323090420605  0.3323372594504779  0.4486717228953277
  0.1045654498465680  0.1675135515308551  0.2139805029027738
  0.1044667202380993  0.1674569219694550  0.3709231387985558
  0.0629481017263795  0.3954345576535733  0.2139805029027738
  0.0629902017734482  0.3955332872620417  0.3709231387985558
  0.1675135365849795  0.1045654497824486  0.2139805029027738
  0.1674569070235793  0.1044667201739800  0.3709231387985558
  0.3954345278161003  0.0629481016698488  0.2139805029027738
  0.3955332574245687  0.0629902017169174  0.3709231387985558
  0.0629004864764205  0.1677993564239089  0.2924759262087800
  0.0632950719005854  0.1676627703760952  0.4486717228953277
  0.3322006733857177  0.3951011375592182  0.2924759262087800
  0.3323372594335315  0.3956323090311963  0.4486717228953277
  0.1763139883304420  0.0000000000000000  0.1810744392573867
  0.1730986903644251  0.0000000000000000  0.3377099836220466
  0.2369664117870386  0.0000000000000000  0.2085688104547915
  0.2347495993392278  0.0000000000000000  0.3652468424951689
  0.3236859967735690  0.3236859967370400  0.1810744392573867
  0.3269012947395861  0.3269012947030571  0.3377099836220466
  0.2630336031222723  0.2630336030904684  0.2085688104547915
  0.2652504155700836  0.2652504155382797  0.3652468424951689
  0.9999999999942517  0.1763139883869870  0.1810744392573867
  0.9999999999942517  0.1730986904209701  0.3377099836220466
  0.9999999999769926  0.2369664118090654  0.2085688104547915
  0.9999999999769926  0.2347495993612546  0.3652468424951689
  0.3276379080431595  0.0000000000000000  0.2591878937880883
  0.3278918687114279  0.0000000000000000  0.4156059886393030
  0.2656584024686838  0.0000000000000000  0.2866799093465005
  0.2652221875041222  0.0000000000000000  0.4431525849001928
  0.1723620620789163  0.1723620769971163  0.2591878937880883
  0.1721081014106477  0.1721081163288477  0.4156059886393030
  0.2343415975583733  0.2343415975446101  0.2866799093465005
  0.2347778125229355  0.2347778125091723  0.4431525849001928
  0.9999999999685727  0.3276379080483464  0.2591878937880883
  0.9999999999685727  0.3278918687166149  0.4156059886393030
  0.0000000000188862  0.2656584025064562  0.2866799093465005
  0.0000000000188862  0.2652221875418947  0.4431525849001928
  0.6677993265963833  0.0629004790835857  0.2924759262087800
  0.6676627405485699  0.0632950645077507  0.4486717228953277
  0.8951011375428685  0.3322006734026642  0.2924759262087800
  0.8956323090148472  0.3323372594504779  0.4486717228953277
  0.4370995358228331  0.1048988698768035  0.2924759262087800
  0.4367049503986689  0.1043676984048250  0.4486717228953277
  0.6045653827340309  0.1675135515308551  0.2139805029027738
  0.6044666531255614  0.1674569219694550  0.3709231387985558
  0.5629480495821635  0.3954345576535733  0.2139805029027738
  0.5629901496292328  0.3955332872620417  0.3709231387985558
  0.4370519206655363  0.3324864782957183  0.2139805029027738
  0.4370098206184679  0.3325431078571182  0.3709231387985558
  0.6675135515260946  0.1045654497824486  0.2139805029027738
  0.6674569219646938  0.1044667201739800  0.3709231387985558
  0.8954345575894671  0.0629481016698488  0.2139805029027738
  0.8955332871979367  0.0629902017169174  0.3709231387985558
  0.5629004641327863  0.1677993564239089  0.2924759262087800
  0.5632950495569512  0.1676627703760952  0.4486717228953277
  0.8322006138253757  0.3951011375592182  0.2924759262087800
  0.8323371998731891  0.3956323090311963  0.4486717228953277
  0.6763139734709680  0.0000000000000000  0.1810744392573867
  0.6730986755049508  0.0000000000000000  0.3377099836220466
  0.7369664565287353  0.0000000000000000  0.2085688104547915
  0.7347496440809246  0.0000000000000000  0.3652468424951689
  0.8236859669457746  0.3236859967370400  0.1810744392573867
  0.8269012649117917  0.3269012947030571  0.3377099836220466
  0.7630336030950586  0.2630336030904684  0.2085688104547915
  0.7652504155428693  0.2652504155382797  0.3652468424951689
  0.5000000000350795  0.1763139883869870  0.1810744392573867
  0.5000000000350795  0.1730986904209701  0.3377099836220466
  0.5000000000178204  0.2369664118090654  0.2085688104547915
  0.5000000000178204  0.2347495993612546  0.3652468424951689
  0.8276379080839874  0.0000000000000000  0.2591878937880883
  0.8278918687522567  0.0000000000000000  0.4156059886393030
  0.7656584025095053  0.0000000000000000  0.2866799093465005
  0.7652221875449422  0.0000000000000000  0.4431525849001928
  0.6723620323191554  0.1723620769971163  0.2591878937880883
  0.6721080716508860  0.1721081163288477  0.4156059886393030
  0.7343415975311590  0.2343415975446101  0.2866799093465005
  0.7347778124957222  0.2347778125091723  0.4431525849001928
  0.5000000000094005  0.3276379080483464  0.2591878937880883
  0.5000000000094005  0.3278918687166149  0.4156059886393030
  0.4999999999916724  0.2656584025064562  0.2866799093465005
  0.4999999999916724  0.2652221875418947  0.4431525849001928
  0.1677993564248753  0.5629005237586407  0.2924759262087800
  0.1676627703770615  0.5632951091828057  0.4486717228953277
  0.3951011673365011  0.8322006733751737  0.2924759262087800
  0.3956323388084792  0.8323372594229871  0.4486717228953277
  0.3324864485068749  0.4370518908391407  0.2139805029027738
  0.3325430780682748  0.4370097907920724  0.3709231387985558
  0.1045654647126994  0.6675135515033643  0.2139805029027738
  0.1044667351042308  0.6674569219419635  0.3709231387985558
  0.0629481166067147  0.8954346172556591  0.2139805029027738
  0.0629902166537834  0.8955333468641287  0.3709231387985558
  0.1675135664010083  0.6045654423699964  0.2139805029027738
  0.1674569368396081  0.6044667127615269  0.3709231387985558
  0.3954345874801038  0.5629481091844279  0.2139805029027738
  0.3955333170885723  0.5629902092314972  0.3709231387985558
  0.0629004939531703  0.6677993862504819  0.2924759262087800
  0.0632950793773353  0.6676628002026684  0.4486717228953277
  0.3322006733657657  0.8951011971613049  0.2924759262087800
  0.3323372594135794  0.8956323686332837  0.4486717228953277
  0.1048988549819021  0.4370995060404414  0.2924759262087800
  0.1043676835099237  0.4367049206162772  0.4486717228953277
  0.1763139883643207  0.4999999999725020  0.1810744392573867
  0.1730986903983038  0.4999999999725020  0.3377099836220466
  0.2369664117528828  0.4999999999725020  0.2085688104547915
  0.2347495993050720  0.4999999999725020  0.3652468424951689
  0.3236860265667325  0.8236860265636212  0.1810744392573867
  0.3269013245327496  0.8269013245296384  0.3377099836220466
  0.2630336031273953  0.7630336031415352  0.2085688104547915
  0.2652504155752066  0.7652504155893459  0.3652468424951689
  0.9999999999949480  0.6763140330620343  0.1810744392573867
  0.9999999999949480  0.6730987350960171  0.3377099836220466
  0.9999999999776890  0.7369664564841203  0.2085688104547915
  0.9999999999776890  0.7347496440363096  0.3652468424951689
  0.3276379378776197  0.4999999999725020  0.2591878937880883
  0.3278918985458882  0.4999999999725020  0.4156059886393030
  0.2656584322351095  0.4999999999725020  0.2866799093465005
  0.2652222172705480  0.4999999999725020  0.4431525849001928
  0.1723620918927282  0.6723620918966574  0.2591878937880883
  0.1721081312244596  0.6721081312283881  0.4156059886393030
  0.2343415975384213  0.7343416571466964  0.2866799093465005
  0.2347778125029835  0.7347778721112596  0.4431525849001928
  0.0000000000166622  0.8276379676504334  0.2591878937880883
  0.0000000000166622  0.8278919283187027  0.4156059886393030
  0.9999999999847233  0.7656584024789591  0.2866799093465005
  0.9999999999847233  0.7652221875143960  0.4431525849001928
  0.6677993861982428  0.5629005237586407  0.2924759262087800
  0.6676628001504293  0.5632951091828057  0.4486717228953277
  0.8951011375087056  0.8322006733751737  0.2924759262087800
  0.8956323089806844  0.8323372594229871  0.4486717228953277
  0.4370995656388618  0.6048988624643507  0.2924759262087800
  0.4367049802146977  0.6043676909923719  0.4486717228953277
  0.8324864484796608  0.4370518908391407  0.2139805029027738
  0.8325430780410616  0.4370097907920724  0.3709231387985558
  0.6045654423690727  0.6675135515033643  0.2139805029027738
  0.6044667127606032  0.6674569219419635  0.3709231387985558
  0.5629481091633746  0.8954346172556591  0.2139805029027738
  0.5629902092104438  0.8955333468641287  0.3709231387985558
  0.4370519504587069  0.8324865081222912  0.2139805029027738
  0.4370098504116385  0.8325431376836920  0.3709231387985558
  0.6675135515415347  0.6045654423699964  0.2139805029027738
  0.6674569219801338  0.6044667127615269  0.3709231387985558
  0.8954346172534706  0.5629481091844279  0.2139805029027738
  0.8955333468619402  0.5629902092314972  0.3709231387985558
  0.5629005237945729  0.6677993862504819  0.2924759262087800
  0.5632951092187378  0.6676628002026684  0.4486717228953277
  0.8322006734065868  0.8951011971613049  0.2924759262087800
  0.8323372594544002  0.8956323686332837  0.4486717228953277
  0.6048988028376933  0.4370995060404414  0.2924759262087800
  0.6043676313657145  0.4367049206162772  0.4486717228953277
  0.6763139734368122  0.4999999999725020  0.1810744392573867
  0.6730986754707950  0.4999999999725020  0.3377099836220466
  0.7369664564945795  0.4999999999725020  0.2085688104547915
  0.7347496440467688  0.4999999999725020  0.3652468424951689
  0.8236860265395196  0.8236860265636212  0.1810744392573867
  0.8269013245055368  0.8269013245296384  0.3377099836220466
  0.7630336031001816  0.7630336031415352  0.2085688104547915
  0.7652504155479923  0.7652504155893459  0.3652468424951689
  0.4999999999677343  0.6763140330620343  0.1810744392573867
  0.4999999999677343  0.6730987350960171  0.3377099836220466
  0.5000000000185167  0.7369664564841203  0.2085688104547915
  0.5000000000185167  0.7347496440363096  0.3652468424951689
  0.8276379080498245  0.4999999999725020  0.2591878937880883
  0.8278918687180938  0.4999999999725020  0.4156059886393030
  0.7656584024753496  0.4999999999725020  0.2866799093465005
  0.7652221875107864  0.4999999999725020  0.4431525849001928
  0.6723620919335488  0.6723620918966574  0.2591878937880883
  0.6721081312652795  0.6721081312283881  0.4156059886393030
  0.7343416571123701  0.7343416571466964  0.2866799093465005
  0.7347778720769332  0.7347778721112596  0.4431525849001928
  0.4999999999894484  0.8276379676504334  0.2591878937880883
  0.4999999999894484  0.8278919283187027  0.4156059886393030
  0.5000000000255511  0.7656584024789591  0.2866799093465005
  0.5000000000255511  0.7652221875143960  0.4431525849001928
  0.9370994761944563  0.1048988698768035  0.2924759262087800
  0.9367048907702914  0.1043676984048250  0.4486717228953277
  0.9370518908377410  0.3324864782957183  0.2139805029027738
  0.9370097907906717  0.3325431078571182  0.3709231387985558
  0.9370995358791011  0.6048988624643507  0.2924759262087800
  0.9367049504549362  0.6043676909923719  0.4486717228953277
  0.9370518908303300  0.8324865081222912  0.2139805029027738
  0.9370097907832607  0.8325431376836920  0.3709231387985558
  0.3324864782732935  0.9370518908116428  0.2139805029027738
  0.3325431078346935  0.9370097907645735  0.3709231387985558
  0.1048988773589464  0.9370995358670148  0.2924759262087800
  0.1043677058869679  0.9367049504428498  0.4486717228953277
  0.8324864484454979  0.9370518908116428  0.2139805029027738
  0.8325430780068988  0.9370097907645735  0.3709231387985558
  0.6048988624994799  0.9370995358670148  0.2924759262087800
  0.6043676910275011  0.9367049504428498  0.4486717228953277
  0.1710074668018414  0.0000000000000000  0.2008608386903644
  0.1692557376157515  0.0000000000000000  0.3576758156380039
  0.1701905397119075  0.0000000000000000  0.2993958756525960
  0.1713169451074016  0.0000000000000000  0.4546912314513928
  0.3289925183410505  0.3289925183434095  0.2008608386903644
  0.3307442475271404  0.3307442475294994  0.3576758156380039
  0.3298094453825753  0.3298094454045595  0.2993958756525960
  0.3286830399870817  0.3286830400090659  0.4546912314513928
  0.0000000000234053  0.1710074667806175  0.2008608386903644
  0.0000000000234053  0.1692557375945276  0.3576758156380039
  0.0000000000037801  0.1701905397194677  0.2993958756525960
  0.0000000000037801  0.1713169451149618  0.4546912314513928
  0.3312063938803325  0.0000000000000000  0.2791539056938793
  0.3313301805328375  0.0000000000000000  0.4355924607948691
  0.3307956493281310  0.0000000000000000  0.2211243336673043
  0.3303288658484529  0.0000000000000000  0.3778540325573614
  0.1687936210246015  0.1687936209884277  0.2791539056938793
  0.1686698343720966  0.1686698343359228  0.4355924607948691
  0.1692043208459355  0.1692043208477900  0.2211243336673043
  0.1696711043256130  0.1696711043274675  0.3778540325573614
  0.9999999999939035  0.3312063641356067  0.2791539056938793
  0.9999999999939035  0.3313301507881117  0.4355924607948691
  0.9999999999639826  0.3307956791247122  0.2211243336673043
  0.9999999999639826  0.3303288956450341  0.3778540325573614
  0.6710074816749144  0.0000000000000000  0.2008608386903644
  0.6692557524888251  0.0000000000000000  0.3576758156380039
  0.6701905843855623  0.0000000000000000  0.2993958756525960
  0.6713169897810566  0.0000000000000000  0.4546912314513928
  0.8289925183138376  0.3289925183434095  0.2008608386903644
  0.8307442474999270  0.3307442475294994  0.3576758156380039
  0.8298094156228150  0.3298094454045595  0.2993958756525960
  0.8286830102273208  0.3286830400090659  0.4546912314513928
  0.4999999999961915  0.1710074667806175  0.2008608386903644
  0.4999999999961915  0.1692557375945276  0.3576758156380039
  0.5000000000446008  0.1701905397194677  0.2993958756525960
  0.5000000000446008  0.1713169451149618  0.4546912314513928
  0.8312063343199905  0.0000000000000000  0.2791539056938793
  0.8313301209724957  0.0000000000000000  0.4355924607948691
  0.8307956493689519  0.0000000000000000  0.2211243336673043
  0.8303288658892743  0.0000000000000000  0.3778540325573614
  0.6687936060970932  0.1687936209884277  0.2791539056938793
  0.6686698194445879  0.1686698343359228  0.4355924607948691
  0.6692043506193028  0.1692043208477900  0.2211243336673043
  0.6696711340989804  0.1696711043274675  0.3778540325573614
  0.5000000000347313  0.3312063641356067  0.2791539056938793
  0.5000000000347313  0.3313301507881117  0.4355924607948691
  0.5000000000048033  0.3307956791247122  0.2211243336673043
  0.5000000000048033  0.3303288956450341  0.3778540325573614
  0.1710074667676785  0.4999999999725020  0.2008608386903644
  0.1692557375815886  0.4999999999725020  0.3576758156380039
  0.1701905396777446  0.4999999999725020  0.2993958756525960
  0.1713169450732387  0.4999999999725020  0.4546912314513928
  0.3289925779222616  0.8289925779454972  0.2008608386903644
  0.3307443071083515  0.8307443071315866  0.3576758156380039
  0.3298094454289880  0.8298094156015555  0.2993958756525960
  0.3286830400334944  0.8286830102060614  0.4546912314513928
  0.9999999999686011  0.6710074816801583  0.2008608386903644
  0.9999999999686011  0.6692557524940689  0.3576758156380039
  0.0000000000044764  0.6701905843945152  0.2993958756525960
  0.0000000000044764  0.6713169897900093  0.4546912314513928
  0.3312063939142112  0.4999999999725020  0.2791539056938793
  0.3313301805667161  0.4999999999725020  0.4355924607948691
  0.3307956791625912  0.4999999999725020  0.2211243336673043
  0.3303288956829131  0.4999999999725020  0.3778540325573614
  0.1687936358575506  0.6687936656634752  0.2791539056938793
  0.1686698492050457  0.6686698790109700  0.4355924607948691
  0.1692043059382302  0.6692043506743699  0.2211243336673043
  0.1696710894179077  0.6696711341540474  0.3778540325573614
  0.0000000000152482  0.8312063938836156  0.2791539056938793
  0.0000000000152482  0.8313301805361208  0.4355924607948691
  0.0000000000103952  0.8307956493217079  0.2211243336673043
  0.0000000000103952  0.8303288658420304  0.3778540325573614
  0.6710074220395956  0.4999999999725020  0.2008608386903644
  0.6692556928535062  0.4999999999725020  0.3576758156380039
  0.6701905843513994  0.4999999999725020  0.2993958756525960
  0.6713169897468937  0.4999999999725020  0.4546912314513928
  0.8289925182938855  0.8289925779454972  0.2008608386903644
  0.8307442474799750  0.8307443071315866  0.3576758156380039
  0.8298094156011931  0.8298094156015555  0.2993958756525960
  0.8286830102056990  0.8286830102060614  0.4546912314513928
  0.5000000000094218  0.6710074816801583  0.2008608386903644
  0.5000000000094218  0.6692557524940689  0.3576758156380039
  0.4999999999772626  0.6701905843945152  0.2993958756525960
  0.4999999999772626  0.6713169897900093  0.4546912314513930
  0.8312063342858347  0.4999999999725020  0.2791539056938793
  0.8313301209383399  0.4999999999725020  0.4355924607948691
  0.8307956493347890  0.4999999999725020  0.2211243336673043
  0.8303288658551115  0.4999999999725020  0.3778540325573614
  0.6687936060977895  0.6687936656634752  0.2791539056938793
  0.6686698194452843  0.6686698790109700  0.4355924607948691
  0.6692043506799263  0.6692043506743699  0.2211243336673043
  0.6696711341596039  0.6696711341540474  0.3778540325573614
  0.5000000595891976  0.8312063938836156  0.2791539056938793
  0.5000000595891976  0.8313301805361208  0.4355924607948691
  0.4999999999831815  0.8307956493217079  0.2211243336673043
  0.4999999999831815  0.8303288658420304  0.3778540325573614
 
  0.00000000E+00  0.00000000E+00  0.00000000E+00
  0.00000000E+00  0.00000000E+00  0.00000000E+00
  0.00000000E+00  0.00000000E+00  0.00000000E+00
  0.00000000E+00  0.00000000E+00  0.00000000E+00
  0.00000000E+00  0.00000000E+00  0.00000000E+00
  0.00000000E+00  0.00000000E+00  0.00000000E+00
  0.00000000E+00  0.00000000E+00  0.00000000E+00
  0.00000000E+00  0.00000000E+00  0.00000000E+00
  0.00000000E+00  0.00000000E+00  0.00000000E+00
  0.00000000E+00  0.00000000E+00  0.00000000E+00
  0.00000000E+00  0.00000000E+00  0.00000000E+00
  0.00000000E+00  0.00000000E+00  0.00000000E+00
  0.00000000E+00  0.00000000E+00  0.00000000E+00
  0.00000000E+00  0.00000000E+00  0.00000000E+00
  0.00000000E+00  0.00000000E+00  0.00000000E+00
  0.00000000E+00  0.00000000E+00  0.00000000E+00
  0.00000000E+00  0.00000000E+00  0.00000000E+00
  0.00000000E+00  0.00000000E+00  0.00000000E+00
  0.00000000E+00  0.00000000E+00  0.00000000E+00
  0.00000000E+00  0.00000000E+00  0.00000000E+00
  0.00000000E+00  0.00000000E+00  0.00000000E+00
  0.00000000E+00  0.00000000E+00  0.00000000E+00
  0.00000000E+00  0.00000000E+00  0.00000000E+00
  0.00000000E+00  0.00000000E+00  0.00000000E+00
  0.00000000E+00  0.00000000E+00  0.00000000E+00
  0.00000000E+00  0.00000000E+00  0.00000000E+00
  0.00000000E+00  0.00000000E+00  0.00000000E+00
  0.00000000E+00  0.00000000E+00  0.00000000E+00
  0.00000000E+00  0.00000000E+00  0.00000000E+00
  0.00000000E+00  0.00000000E+00  0.00000000E+00
  0.00000000E+00  0.00000000E+00  0.00000000E+00
  0.00000000E+00  0.00000000E+00  0.00000000E+00
  0.00000000E+00  0.00000000E+00  0.00000000E+00
  0.00000000E+00  0.00000000E+00  0.00000000E+00
  0.00000000E+00  0.00000000E+00  0.00000000E+00
  0.00000000E+00  0.00000000E+00  0.00000000E+00
  0.00000000E+00  0.00000000E+00  0.00000000E+00
  0.00000000E+00  0.00000000E+00  0.00000000E+00
  0.00000000E+00  0.00000000E+00  0.00000000E+00
  0.00000000E+00  0.00000000E+00  0.00000000E+00
  0.00000000E+00  0.00000000E+00  0.00000000E+00
  0.00000000E+00  0.00000000E+00  0.00000000E+00
  0.00000000E+00  0.00000000E+00  0.00000000E+00
  0.00000000E+00  0.00000000E+00  0.00000000E+00
  0.00000000E+00  0.00000000E+00  0.00000000E+00
  0.00000000E+00  0.00000000E+00  0.00000000E+00
  0.00000000E+00  0.00000000E+00  0.00000000E+00
  0.00000000E+00  0.00000000E+00  0.00000000E+00
  0.00000000E+00  0.00000000E+00  0.00000000E+00
  0.00000000E+00  0.00000000E+00  0.00000000E+00
  0.00000000E+00  0.00000000E+00  0.00000000E+00
  0.00000000E+00  0.00000000E+00  0.00000000E+00
  0.00000000E+00  0.00000000E+00  0.00000000E+00
  0.00000000E+00  0.00000000E+00  0.00000000E+00
  0.00000000E+00  0.00000000E+00  0.00000000E+00
  0.00000000E+00  0.00000000E+00  0.00000000E+00
  0.00000000E+00  0.00000000E+00  0.00000000E+00
  0.00000000E+00  0.00000000E+00  0.00000000E+00
  0.00000000E+00  0.00000000E+00  0.00000000E+00
  0.00000000E+00  0.00000000E+00  0.00000000E+00
  0.00000000E+00  0.00000000E+00  0.00000000E+00
  0.00000000E+00  0.00000000E+00  0.00000000E+00
  0.00000000E+00  0.00000000E+00  0.00000000E+00
  0.00000000E+00  0.00000000E+00  0.00000000E+00
  0.00000000E+00  0.00000000E+00  0.00000000E+00
  0.00000000E+00  0.00000000E+00  0.00000000E+00
  0.00000000E+00  0.00000000E+00  0.00000000E+00
  0.00000000E+00  0.00000000E+00  0.00000000E+00
  0.00000000E+00  0.00000000E+00  0.00000000E+00
  0.00000000E+00  0.00000000E+00  0.00000000E+00
  0.00000000E+00  0.00000000E+00  0.00000000E+00
  0.00000000E+00  0.00000000E+00  0.00000000E+00
  0.00000000E+00  0.00000000E+00  0.00000000E+00
  0.00000000E+00  0.00000000E+00  0.00000000E+00
  0.00000000E+00  0.00000000E+00  0.00000000E+00
  0.00000000E+00  0.00000000E+00  0.00000000E+00
  0.00000000E+00  0.00000000E+00  0.00000000E+00
  0.00000000E+00  0.00000000E+00  0.00000000E+00
  0.00000000E+00  0.00000000E+00  0.00000000E+00
  0.00000000E+00  0.00000000E+00  0.00000000E+00
  0.00000000E+00  0.00000000E+00  0.00000000E+00
  0.00000000E+00  0.00000000E+00  0.00000000E+00
  0.00000000E+00  0.00000000E+00  0.00000000E+00
  0.00000000E+00  0.00000000E+00  0.00000000E+00
  0.00000000E+00  0.00000000E+00  0.00000000E+00
  0.00000000E+00  0.00000000E+00  0.00000000E+00
  0.00000000E+00  0.00000000E+00  0.00000000E+00
  0.00000000E+00  0.00000000E+00  0.00000000E+00
  0.00000000E+00  0.00000000E+00  0.00000000E+00
  0.00000000E+00  0.00000000E+00  0.00000000E+00
  0.00000000E+00  0.00000000E+00  0.00000000E+00
  0.00000000E+00  0.00000000E+00  0.00000000E+00
  0.00000000E+00  0.00000000E+00  0.00000000E+00
  0.00000000E+00  0.00000000E+00  0.00000000E+00
  0.00000000E+00  0.00000000E+00  0.00000000E+00
  0.00000000E+00  0.00000000E+00  0.00000000E+00
  0.00000000E+00  0.00000000E+00  0.00000000E+00
  0.00000000E+00  0.00000000E+00  0.00000000E+00
  0.00000000E+00  0.00000000E+00  0.00000000E+00
  0.00000000E+00  0.00000000E+00  0.00000000E+00
  0.00000000E+00  0.00000000E+00  0.00000000E+00
  0.00000000E+00  0.00000000E+00  0.00000000E+00
  0.00000000E+00  0.00000000E+00  0.00000000E+00
  0.00000000E+00  0.00000000E+00  0.00000000E+00
  0.00000000E+00  0.00000000E+00  0.00000000E+00
  0.00000000E+00  0.00000000E+00  0.00000000E+00
  0.00000000E+00  0.00000000E+00  0.00000000E+00
  0.00000000E+00  0.00000000E+00  0.00000000E+00
  0.00000000E+00  0.00000000E+00  0.00000000E+00
  0.00000000E+00  0.00000000E+00  0.00000000E+00
  0.00000000E+00  0.00000000E+00  0.00000000E+00
  0.00000000E+00  0.00000000E+00  0.00000000E+00
  0.00000000E+00  0.00000000E+00  0.00000000E+00
  0.00000000E+00  0.00000000E+00  0.00000000E+00
  0.00000000E+00  0.00000000E+00  0.00000000E+00
  0.00000000E+00  0.00000000E+00  0.00000000E+00
  0.00000000E+00  0.00000000E+00  0.00000000E+00
  0.00000000E+00  0.00000000E+00  0.00000000E+00
  0.00000000E+00  0.00000000E+00  0.00000000E+00
  0.00000000E+00  0.00000000E+00  0.00000000E+00
  0.00000000E+00  0.00000000E+00  0.00000000E+00
  0.00000000E+00  0.00000000E+00  0.00000000E+00
  0.00000000E+00  0.00000000E+00  0.00000000E+00
  0.00000000E+00  0.00000000E+00  0.00000000E+00
  0.00000000E+00  0.00000000E+00  0.00000000E+00
  0.00000000E+00  0.00000000E+00  0.00000000E+00
  0.00000000E+00  0.00000000E+00  0.00000000E+00
  0.00000000E+00  0.00000000E+00  0.00000000E+00
  0.00000000E+00  0.00000000E+00  0.00000000E+00
  0.00000000E+00  0.00000000E+00  0.00000000E+00
  0.00000000E+00  0.00000000E+00  0.00000000E+00
  0.00000000E+00  0.00000000E+00  0.00000000E+00
  0.00000000E+00  0.00000000E+00  0.00000000E+00
  0.00000000E+00  0.00000000E+00  0.00000000E+00
  0.00000000E+00  0.00000000E+00  0.00000000E+00
  0.00000000E+00  0.00000000E+00  0.00000000E+00
  0.00000000E+00  0.00000000E+00  0.00000000E+00
  0.00000000E+00  0.00000000E+00  0.00000000E+00
  0.00000000E+00  0.00000000E+00  0.00000000E+00
  0.00000000E+00  0.00000000E+00  0.00000000E+00
  0.00000000E+00  0.00000000E+00  0.00000000E+00
  0.00000000E+00  0.00000000E+00  0.00000000E+00
  0.00000000E+00  0.00000000E+00  0.00000000E+00
  0.00000000E+00  0.00000000E+00  0.00000000E+00
  0.00000000E+00  0.00000000E+00  0.00000000E+00
  0.00000000E+00  0.00000000E+00  0.00000000E+00
  0.00000000E+00  0.00000000E+00  0.00000000E+00
  0.00000000E+00  0.00000000E+00  0.00000000E+00
  0.00000000E+00  0.00000000E+00  0.00000000E+00
  0.00000000E+00  0.00000000E+00  0.00000000E+00
  0.00000000E+00  0.00000000E+00  0.00000000E+00
  0.00000000E+00  0.00000000E+00  0.00000000E+00
  0.00000000E+00  0.00000000E+00  0.00000000E+00
  0.00000000E+00  0.00000000E+00  0.00000000E+00
  0.00000000E+00  0.00000000E+00  0.00000000E+00
  0.00000000E+00  0.00000000E+00  0.00000000E+00
  0.00000000E+00  0.00000000E+00  0.00000000E+00
  0.00000000E+00  0.00000000E+00  0.00000000E+00
  0.00000000E+00  0.00000000E+00  0.00000000E+00
  0.00000000E+00  0.00000000E+00  0.00000000E+00
  0.00000000E+00  0.00000000E+00  0.00000000E+00
  0.00000000E+00  0.00000000E+00  0.00000000E+00
  0.00000000E+00  0.00000000E+00  0.00000000E+00
  0.00000000E+00  0.00000000E+00  0.00000000E+00
  0.00000000E+00  0.00000000E+00  0.00000000E+00
  0.00000000E+00  0.00000000E+00  0.00000000E+00
  0.00000000E+00  0.00000000E+00  0.00000000E+00
  0.00000000E+00  0.00000000E+00  0.00000000E+00
  0.00000000E+00  0.00000000E+00  0.00000000E+00
  0.00000000E+00  0.00000000E+00  0.00000000E+00
  0.00000000E+00  0.00000000E+00  0.00000000E+00
  0.00000000E+00  0.00000000E+00  0.00000000E+00
  0.00000000E+00  0.00000000E+00  0.00000000E+00
  0.00000000E+00  0.00000000E+00  0.00000000E+00
  0.00000000E+00  0.00000000E+00  0.00000000E+00
  0.00000000E+00  0.00000000E+00  0.00000000E+00
  0.00000000E+00  0.00000000E+00  0.00000000E+00
  0.00000000E+00  0.00000000E+00  0.00000000E+00
  0.00000000E+00  0.00000000E+00  0.00000000E+00
  0.00000000E+00  0.00000000E+00  0.00000000E+00
  0.00000000E+00  0.00000000E+00  0.00000000E+00
  0.00000000E+00  0.00000000E+00  0.00000000E+00
  0.00000000E+00  0.00000000E+00  0.00000000E+00
  0.00000000E+00  0.00000000E+00  0.00000000E+00
  0.00000000E+00  0.00000000E+00  0.00000000E+00
  0.00000000E+00  0.00000000E+00  0.00000000E+00
  0.00000000E+00  0.00000000E+00  0.00000000E+00
  0.00000000E+00  0.00000000E+00  0.00000000E+00
  0.00000000E+00  0.00000000E+00  0.00000000E+00
  0.00000000E+00  0.00000000E+00  0.00000000E+00
  0.00000000E+00  0.00000000E+00  0.00000000E+00
  0.00000000E+00  0.00000000E+00  0.00000000E+00
  0.00000000E+00  0.00000000E+00  0.00000000E+00
  0.00000000E+00  0.00000000E+00  0.00000000E+00
  0.00000000E+00  0.00000000E+00  0.00000000E+00
  0.00000000E+00  0.00000000E+00  0.00000000E+00
  0.00000000E+00  0.00000000E+00  0.00000000E+00
  0.00000000E+00  0.00000000E+00  0.00000000E+00
  0.00000000E+00  0.00000000E+00  0.00000000E+00
  0.00000000E+00  0.00000000E+00  0.00000000E+00
  0.00000000E+00  0.00000000E+00  0.00000000E+00
  0.00000000E+00  0.00000000E+00  0.00000000E+00
  0.00000000E+00  0.00000000E+00  0.00000000E+00
  0.00000000E+00  0.00000000E+00  0.00000000E+00
  0.00000000E+00  0.00000000E+00  0.00000000E+00
  0.00000000E+00  0.00000000E+00  0.00000000E+00
  0.00000000E+00  0.00000000E+00  0.00000000E+00
  0.00000000E+00  0.00000000E+00  0.00000000E+00
  0.00000000E+00  0.00000000E+00  0.00000000E+00
  0.00000000E+00  0.00000000E+00  0.00000000E+00
  0.00000000E+00  0.00000000E+00  0.00000000E+00
  0.00000000E+00  0.00000000E+00  0.00000000E+00
  0.00000000E+00  0.00000000E+00  0.00000000E+00
  0.00000000E+00  0.00000000E+00  0.00000000E+00
  0.00000000E+00  0.00000000E+00  0.00000000E+00
  0.00000000E+00  0.00000000E+00  0.00000000E+00
  0.00000000E+00  0.00000000E+00  0.00000000E+00
  0.00000000E+00  0.00000000E+00  0.00000000E+00
  0.00000000E+00  0.00000000E+00  0.00000000E+00
  0.00000000E+00  0.00000000E+00  0.00000000E+00
  0.00000000E+00  0.00000000E+00  0.00000000E+00
  0.00000000E+00  0.00000000E+00  0.00000000E+00
  0.00000000E+00  0.00000000E+00  0.00000000E+00
  0.00000000E+00  0.00000000E+00  0.00000000E+00
  0.00000000E+00  0.00000000E+00  0.00000000E+00
  0.00000000E+00  0.00000000E+00  0.00000000E+00
  0.00000000E+00  0.00000000E+00  0.00000000E+00
  0.00000000E+00  0.00000000E+00  0.00000000E+00
  0.00000000E+00  0.00000000E+00  0.00000000E+00
  0.00000000E+00  0.00000000E+00  0.00000000E+00
  0.00000000E+00  0.00000000E+00  0.00000000E+00
  0.00000000E+00  0.00000000E+00  0.00000000E+00
  0.00000000E+00  0.00000000E+00  0.00000000E+00
  0.00000000E+00  0.00000000E+00  0.00000000E+00
  0.00000000E+00  0.00000000E+00  0.00000000E+00
  0.00000000E+00  0.00000000E+00  0.00000000E+00
  0.00000000E+00  0.00000000E+00  0.00000000E+00
  0.00000000E+00  0.00000000E+00  0.00000000E+00
  0.00000000E+00  0.00000000E+00  0.00000000E+00
  0.00000000E+00  0.00000000E+00  0.00000000E+00
  0.00000000E+00  0.00000000E+00  0.00000000E+00
  0.00000000E+00  0.00000000E+00  0.00000000E+00
  0.00000000E+00  0.00000000E+00  0.00000000E+00
  0.00000000E+00  0.00000000E+00  0.00000000E+00
  0.00000000E+00  0.00000000E+00  0.00000000E+00
  0.00000000E+00  0.00000000E+00  0.00000000E+00
  0.00000000E+00  0.00000000E+00  0.00000000E+00