bilayer_4                               
   1.00000000000000     
    14.6976995467999991    0.0000000000000000    0.0000000000000000
    -7.3488497733999996   12.7285811846999994    0.0000000000000000
     0.0000000000000000    0.0000000000000000   49.2004013061999999
   H    O 
   192    96
Direct
  0.6016415702151617  0.4369454031262904  0.4495531866187635
  0.6649001532224035  0.5634388436259283  0.4495537181794368
  0.1682402127934601  0.0628092707876374  0.2921936086160899
  0.1652680415078438  0.0636314407045624  0.4493658270548513
  0.3955533939859139  0.3323023827837812  0.2924632821614880
  0.3936568411010514  0.3328870803541041  0.4492319079976507
  0.1049120279729554  0.1676900050593795  0.2136262034833500
  0.1031739565054266  0.1674433263856099  0.3712876338089971
  0.0628510190451513  0.3948857006914719  0.2138665891005364
  0.0619249932602488  0.3956113066000739  0.3711390275588796
  0.1676729842375785  0.1046364469649336  0.2137453980245602
  0.1661210372605391  0.1044959176687263  0.3711279578123355
  0.3955406255183841  0.0627700714299228  0.2135712450730953
  0.3939095160108314  0.0630732627646356  0.3713286556948496
  0.0631617065247496  0.1675493429439869  0.2925404035718709
  0.0610732146605467  0.1677398807987826  0.4491245415708053
  0.3327952690523679  0.3952403988188736  0.2923612132716774
  0.3302990158440030  0.3960831416458941  0.4493041568983596
  0.1752740082505175 -0.0009601002199415  0.1809197523247493
  0.1724046595801687  0.0001682154581362  0.3377262446503522
  0.2367485430374917 -0.0002649257019485  0.2083119517748651
  0.2333675266009246  0.0001380783999808  0.3653760540941502
  0.3241369403590783  0.3237262568511243  0.1806736078264314
  0.3261705658147586  0.3269116753807250  0.3379874105711521
  0.2634207986536634  0.2631357500308711  0.2081711253637877
  0.2640857325177439  0.2652523897185993  0.3654843312149722
  0.0001807800971335  0.1764049362669315  0.1806512608420738
 -0.0011007277421779  0.1729601991668250  0.3380514830300031
  0.0000585056301764  0.2366144732159774  0.2082283568621177
 -0.0013090795387650  0.2348114048967489  0.3655437983664409
  0.3283488094516344  0.0001597887030449  0.2588714241585217
  0.3250762055393863  0.0004644092188019  0.4161126292861565
  0.2663389123624658  0.0000856062296925  0.2863510646233102
  0.2627184688388109  0.0004616895325445  0.4437472512029553
  0.1729838342050571  0.1730424734814220  0.2589900194145394
  0.1707731030975556  0.1724200158713498  0.4160183752705462
  0.2348955380244954  0.2345871174340610  0.2865299232527256
  0.2328628043505526  0.2351904167193338  0.4436095414420235
 -0.0002758456890966  0.3266609501529177  0.2591099525709488
 -0.0013471740332874  0.3283183196102177  0.4160457475341935
  0.0000891623750153  0.2650723609909563  0.2866418013293310
 -0.0019797199593379  0.2655069096722678  0.4436107155293855
  0.6683559220835044  0.0628554358724652  0.2923582575121170
  0.6651868966771288  0.0633198038769737  0.4493622724461625
  0.8958323915624187  0.3326622897149448  0.2927081945184815
  0.8937016388610256  0.3329195965674785  0.4492586635322048
  0.4376147499490355  0.1049100644362576  0.2924750353720193
  0.4347075888872086  0.1046251992527881  0.4492398365526719
  0.6051137846871186  0.1678171152151869  0.2139481746868580
  0.6033218791457332  0.1674155292626481  0.3712652210178193
  0.5630235988770312  0.3950082651031030  0.2136803812788471
  0.5618496093565641  0.3956225419423785  0.3711838524312920
  0.4372393188345041  0.3320184506454380  0.2136748174371881
  0.4359518762906044  0.3326459332253541  0.3713077578453562
  0.6679486084007558  0.1049346542523848  0.2140604618095143
  0.6662560949269863  0.1044376543204538  0.3710814167708455
  0.8955058820425816  0.0628209444055889  0.2135535229314932
  0.8937462154942077  0.0629178196102329  0.3713480932755630
  0.5633276502880636  0.1679983121944621  0.2927486303758574
  0.5612573053659115  0.1676439925511723  0.4491385714720053
  0.8331313238321825  0.3956590794122756  0.2924885639267717
  0.8300486160394265  0.3958211398401852  0.4494869782450747
  0.6760112497226671  0.0006327195200327  0.1809309055097100
  0.6721992562008788 -0.0003172600433231  0.3377315280671594
  0.7368841720147964  0.0000006152095493  0.2083111270598381
  0.7332332597250469 -0.0001145163106979  0.3653909131650996
  0.8236936446231471  0.3229591364246550  0.1807375124609320
  0.8264583355293508  0.3277232966162251  0.3381740909575831
  0.7633877402592545  0.2631165385071103  0.2083543085678862
  0.7641991051094281  0.2654566397432956  0.3655934149224854
  0.5010323201492389  0.1761639420891707  0.1807273852610941
  0.4990298393414398  0.1732118851062494  0.3380812115995839
  0.5003087248232074  0.2365832509208931  0.2082026576600312
  0.4988859591246031  0.2348930787639442  0.3656047673048110
  0.8281523558044147 -0.0001933386203647  0.2588407828837942
  0.8249314046241083  0.0001724375343309  0.4161322683290561
  0.7661570586217138 -0.0002490618180718  0.2863239774288648
  0.7625618365095038  0.0001441921296403  0.4437670639587622
  0.6733806659339779  0.1735136175631364  0.2594014211365721
  0.6709272859476876  0.1722498668876045  0.4160018686534434
  0.7352195117194585  0.2350141555795519  0.2869377184941927
  0.7329357585921019  0.2349102869449003  0.4436166291742231
  0.5002015219918382  0.3269581682568251  0.2590027640919721
  0.4986798836788885  0.3282402153666908  0.4161031963596047
  0.5002824704486073  0.2654206032025070  0.2865866293212411
  0.4981558245669926  0.2654455102267645  0.4436656492432597
  0.1681299938507996  0.5627479747864674  0.2922716806249010
  0.1652609396303003  0.5635244613516002  0.4493817612230603
  0.3954619209269169  0.8322049286377283  0.2924974074246767
  0.3937133285191751  0.8328867743618878  0.4490799733756351
  0.3325713756945338  0.4369536441671480  0.2135936475596775
  0.3311731307014652  0.4370965159568869  0.3713277535690644
  0.1047785229796073  0.6675806572699491  0.2137168694887906
  0.1030671461798171  0.6670537698667300  0.3713352172892712
  0.0629332736498263  0.8947209414181992  0.2140436742806304
  0.0618419130487709  0.8955459557519774  0.3710789645454414
  0.1675944255023777  0.6046063077784029  0.2138561724187619
  0.1662733560137347  0.6043373600294171  0.3711370249565216
  0.3954928468994126  0.5627905004875557  0.2135617850062523
  0.3941241220760724  0.5629580001359945  0.3713203505888004
  0.0629767648926371  0.6671440916094769  0.2927372445637021
  0.0609487205860423  0.6675193929141254  0.4492591622158695
  0.3329022010737420  0.8953381281842767  0.2923843523181950
  0.3303295670043406  0.8961001934276820  0.4491449975941911
  0.1052445656249707  0.4368988606809150  0.2922550421026829
  0.1020247724170552  0.4370076676068984  0.4493646721307245
  0.1756325369662886  0.4997313983346740  0.1808956736531164
  0.1724827721808739  0.4998981022287024  0.3377435321467310
  0.2367987226760108  0.4998242695943199  0.2082937957322767
  0.2335923323472628  0.4999956484703716  0.3653825238915262
  0.3237279888232868  0.8233520679814103  0.1807295967069961
  0.3258962023152867  0.8269640827984519  0.3380222847636585
  0.2632249218910692  0.7630076372881873  0.2082703347095467
  0.2638641276760861  0.7651999377806563  0.3655180068737588
  0.0004501594100176  0.6767738173065362  0.1806747786239507
 -0.0013362762376562  0.6722637562447576  0.3381752876609446
  0.0001167714748095  0.7365880995024952  0.2083141233420717
 -0.0012485821778768  0.7345767730511609  0.3655991607924193
  0.3280486852746748  0.4999826850133036  0.2588455104956572
  0.3251590982931734  0.5002651191349290  0.4161659831968077
  0.2660629274578021  0.4999027473832537  0.2863384123408967
  0.2626506900387293  0.5003263783359778  0.4437718131748390
  0.1726642388638346  0.6729106561553220  0.2591252477852805
  0.1704597126957680  0.6720129001220961  0.4160266471364419
  0.2347531465464809  0.7345854534579026  0.2866299708978775
  0.2327413413640696  0.7350343297468366  0.4435573256749805
 -0.0001024220356974  0.8262592433893812  0.2593716806274636
 -0.0011147395429663  0.8280283612749484  0.4160074395055402
  0.0001274599350226  0.7647889333993708  0.2869288150457643
 -0.0017788729077029  0.7654565092813048  0.4436390120607063
  0.6682739546739652  0.5627973927331233  0.2923080669187456
  0.8953733701380499  0.8319405860411657  0.2927136964196714
  0.8938877420531515  0.8328993613238798  0.4490990464146093
  0.4374627256844277  0.6046404919392612  0.2923948606121964
  0.4345402057671721  0.6046285832455063  0.4493141474015912
  0.8324793601261078  0.4369444017321160  0.2135176671160700
  0.8307099234473002  0.4371304556411385  0.3716058076928724
  0.6050217579359823  0.6676604041806763  0.2136695910664049
  0.6033130261978172  0.6673495103391706  0.3712996036770546
  0.5629251793405504  0.8950116921001208  0.2137525670920129
  0.5615802211451996  0.8954965616854280  0.3711218822248032
  0.4370946585454026  0.8319262252611259  0.2136782065281520
  0.4356765212180515  0.8325319855566786  0.3712800619230689
  0.6678284462245235  0.6046941233039589  0.2137044052965970
  0.6662410039562693  0.6043800350917126  0.3711917847829967
  0.8954030723060299  0.5628024714836528  0.2134815222679759
  0.8936135736470874  0.5629279370661182  0.3715929077808962
  0.5631574133152603  0.6675881600504729  0.2925128205937071
  0.5610698048862056  0.6677142425178958  0.4492548433187298
  0.8327404146800059  0.8950188288832396  0.2924427201390643
  0.8304065473451155  0.8959933366545061  0.4492051100716851
  0.6053798624616453  0.4370315123382408  0.2922859528975774
  0.6758695612143563  0.4999221238211344  0.1806819596130792
  0.6724741177074351  0.4999442994359720  0.3378258911476035
  0.7368311287691780  0.4998857690273644  0.2081132221811454
  0.7333533444791811  0.4999991579601674  0.3655278095712546
  0.8247761598219759  0.8235613610139754  0.1807778434777550
  0.8259173113101861  0.8268934486758950  0.3380917386047231
  0.7635896079197844  0.7631380035618056  0.2082452784654387
  0.7640600991058921  0.7651962563057130  0.3656033768831016
  0.5003196415306070  0.6760560467164399  0.1806398929747150
  0.4992559256405245  0.6731081545246119  0.3380070047328806
  0.5001716413216705  0.7365666504385371  0.2081543660920471
  0.4988467817088535  0.7347933211049272  0.3655043932480239
  0.8278967951031799  0.4999492470944811  0.2587698715868555
  0.8244759962296119  0.5001572082788457  0.4164679442743589
  0.7660173214883310  0.4998971108915970  0.2862955290123110
  0.7621952616740224  0.5001774532743405  0.4441085709980469
  0.6730540822066443  0.6728386606401620  0.2590394297930105
  0.6704889539116587  0.6720332324860026  0.4160808553690463
  0.7347954977093764  0.7344387664460561  0.2865995073651388
  0.7328724727455076  0.7349820444313087  0.4436091293760918
  0.4999008179260273  0.8266924833092771  0.2589841254824121
  0.4985798929860779  0.8279314130102972  0.4160173844387721
  0.5002022827081342  0.7652129701563538  0.2865457675133399
  0.4980260058295303  0.7653308650976965  0.4436382981417731
  0.9374713900886025  0.1044388892697090  0.2924040814323047
  0.9344994792693979  0.1045822569568272  0.4491952890916507
  0.9370567573377427  0.3319321168641742  0.2137674779895866
  0.9359989539005421  0.3328879963375224  0.3713465808968767
  0.9372918039309740  0.6041904825560902  0.2925043312182632
  0.9343899167167539  0.6045857270788497  0.4494866288681695
  0.9372102936159463  0.8318442352371035  0.2139733691947404
  0.9359296092144337  0.8325862082312432  0.3712823688612698
  0.3325354481911874  0.9369227897158129  0.2136182969804071
  0.3308634495104595  0.9371784745687566  0.3713346996762930
  0.1054218171432548  0.9369225487215758  0.2923373568239918
  0.1021023272487226  0.9371050198457310  0.4493461051275600
  0.8326461456835760  0.9369728892855529  0.2135886971903123
  0.8308583082021055  0.9370330128038742  0.3713800078118242
  0.6052982278227371  0.9369691841130783  0.2921813241701525
  0.6019068389439458  0.9368008912479205  0.4493474476250733
  0.1705506902720212 -0.0004920338000193  0.2007141075792500
  0.1679979886226703  0.0000702011335698  0.3576778934413885
  0.1708059944109788  0.0000347778751291  0.2991238129503977
  0.1687719714057914  0.0003882793251415  0.4554962700480497
  0.3294200970182578  0.3290346424150419  0.2004593693571932
  0.3295931925389313  0.3307689879795401  0.3579511249663951
  0.3303826485608906  0.3300891164162719  0.2993870231838339
  0.3268044051081379  0.3292248743344193  0.4553157827985543
  0.0001479246915886  0.1708181333172080  0.2004307584356060
 -0.0015293876171697  0.1691693085622550  0.3580160927911102
  0.0001178974014990  0.1695657154008348  0.2994757866595355
 -0.0021070861796941  0.1713985107947531  0.4552230734380690
  0.3319243961521207  0.0001776812579182  0.2788349795642511
  0.3286795794924698  0.0005047472699350  0.4360922870184612
  0.3309124248535368 -0.0000873340370527  0.2207499523102168
  0.3285803336674095  0.0001580973971051  0.3782262413805441
  0.1694240843665055  0.1691650769166779  0.2789488632949765
  0.1669075886491112  0.1691745006817290  0.4359992168552168
  0.1695606326162898  0.1694836242851423  0.2207929816131049
  0.1684119725115506  0.1695929417391324  0.3781572660667595
  0.0001072315060581  0.3305401849938239  0.2790701044914292
 -0.0018833662564744  0.3315931795705512  0.4360281980909749
 -0.0001126925471034  0.3301207091530758  0.2209484201982146
 -0.0009335272931958  0.3306317966263068  0.3781972622174225
  0.6708449585101067  0.0001314039971207  0.2007261649698442
  0.6678960642459170 -0.0001469004847136  0.3576822881794454
  0.6706436299583879 -0.0002770644019824  0.2991185013488921
  0.6686061186918345  0.0000472798634338  0.4555059732419138
  0.8292453873832528  0.3288161298459257  0.2005141135449063
  0.8296608943446864  0.3312411094536641  0.3581437936858110
  0.8308707929714175  0.3307851729164955  0.2996731724630522
  0.8267664048123797  0.3289558809979856  0.4553906389557212
  0.5004493605792100  0.1706733283805627  0.2005151916121033
  0.4987123677000215  0.1693136094952411  0.3580448604029025
  0.5001643928070147  0.1700821178454671  0.2995630329849145
  0.4981553242885214  0.1713732432151107  0.4552737557532332
  0.8316902949638384 -0.0002435524389382  0.2788045002908277
  0.8285653739055208  0.0002650315975227  0.4361122623845441
  0.8309228624022331 -0.0000938972407877  0.2207283049418410
  0.8284698091361298 -0.0000185167102166  0.3782555589781092
  0.6697603139368975  0.1695830347518071  0.2793590226796914
  0.6670215513795332  0.1689360230224869  0.4359818008542855
  0.6697566366032248  0.1696900151240462  0.2211478962557818
  0.6685403096271545  0.1695067283281625  0.3781316469451282
  0.5003441726262635  0.3308400417823463  0.2789601446868589
  0.4981133070186370  0.3314620872525789  0.4360853614114456
  0.5001589137123174  0.3302833961033999  0.2208149808163392
  0.4990140295128031  0.3305952820126828  0.3782397237421440
  0.1706732382681575  0.4997383231843583  0.2006899965013715
  0.1682266854789079  0.4999469113514929  0.3576962767628726
  0.1705665425375337  0.4998249846106867  0.2991397281667946
  0.1687468428855887  0.5002654632529813  0.4555079736664157
  0.3291678687387352  0.8288258348738088  0.2005120812945237
  0.3292745659021052  0.8308295763308440  0.3579858905324315
  0.3303682064219867  0.8301451043178499  0.2994241181099602
  0.3268365258678419  0.8292284903327546  0.4551436672979184
  0.0001805649520764  0.6708679188937074  0.2004493152933315
 -0.0015995019329779  0.6687797433280636  0.3581453829180883
 -0.0000996784097469  0.6690484204230620  0.2996986226624359
 -0.0020348442126892  0.6714258382276337  0.4554098588705006
  0.3316200240871274  0.4999756483554241  0.2788086220252202
  0.3286723689407421  0.5003896733411436  0.4361462391447640
  0.3308817152914065  0.4999001790730265  0.2207351942257451
  0.3288653363292238  0.5000398968635938  0.3782382171454716
  0.1692485206854749  0.6691017362127935  0.2790861659795421
  0.1667114437156728  0.6689352000279798  0.4360106789175562
  0.1693597622656592  0.6693592790110161  0.2209305903548356
  0.1684150074469368  0.6693429449311967  0.3781793552923297
  0.0002003338750207  0.8302476070358876  0.2793286809133266
 -0.0016345595704863  0.8314603655132179  0.4359864369224831
  0.0000155081973877  0.8299704768676844  0.2211470922253136
 -0.0009359818637049  0.8305027856178310  0.3781455342963317
  0.6707801685536244  0.4998648604104860  0.2004739878135895
  0.6680489632433767  0.4999644309685831  0.3577745240857514
  0.6706846713332805  0.4998925528391641  0.2991994808648682
  0.8296775140509761  0.8290221369710516  0.2005664601020649
  0.8294700689441139  0.8307904940937620  0.3580547873725153
  0.8301359278373480  0.8298616857354439  0.2995327197248650
  0.8270183396179019  0.8291662080480410  0.4551983633762601
  0.5002295013362791  0.6706642708992571  0.2004243061318018
  0.4988539503687014  0.6692821701147361  0.3579714193104864
  0.5001834030476812  0.6697707168385423  0.2994364909866402
  0.4979199901599902  0.6714125769797341  0.4553601819547548
  0.8315131108138234  0.4999311672811111  0.2787316513115384
  0.8281528370210752  0.5002171637703076  0.4364442346404470
  0.8307540002048621  0.4999017335206811  0.2206360392335704
  0.8282910513222786  0.5000392915012124  0.3785000069766752
  0.6693807241337736  0.6690219308012498  0.2789978060131780
  0.6667891941537814  0.6689405675960797  0.4360647660437807
  0.6696506991807741  0.6694067627857746  0.2208333846621798
  0.6684503409556513  0.6694369320779848  0.3782273608091360
  0.5001773929167929  0.8306190466811352  0.2789423114060287
  0.4981079725508840  0.8313428667188090  0.4359972063562844
  0.5000027056126384  0.8301519606118681  0.2208115584003586
  0.4987721367874920  0.8304294160601029  0.3781639253251273
  0.6682132360602788  0.5001890037205126  0.4557750445254927
 
  0.00000000E+00  0.00000000E+00  0.00000000E+00
  0.00000000E+00  0.00000000E+00  0.00000000E+00
  0.00000000E+00  0.00000000E+00  0.00000000E+00
  0.00000000E+00  0.00000000E+00  0.00000000E+00
  0.00000000E+00  0.00000000E+00  0.00000000E+00
  0.00000000E+00  0.00000000E+00  0.00000000E+00
  0.00000000E+00  0.00000000E+00  0.00000000E+00
  0.00000000E+00  0.00000000E+00  0.00000000E+00
  0.00000000E+00  0.00000000E+00  0.00000000E+00
  0.00000000E+00  0.00000000E+00  0.00000000E+00
  0.00000000E+00  0.00000000E+00  0.00000000E+00
  0.00000000E+00  0.00000000E+00  0.00000000E+00
  0.00000000E+00  0.00000000E+00  0.00000000E+00
  0.00000000E+00  0.00000000E+00  0.00000000E+00
  0.00000000E+00  0.00000000E+00  0.00000000E+00
  0.00000000E+00  0.00000000E+00  0.00000000E+00
  0.00000000E+00  0.00000000E+00  0.00000000E+00
  0.00000000E+00  0.00000000E+00  0.00000000E+00
  0.00000000E+00  0.00000000E+00  0.00000000E+00
  0.00000000E+00  0.00000000E+00  0.00000000E+00
  0.00000000E+00  0.00000000E+00  0.00000000E+00
  0.00000000E+00  0.00000000E+00  0.00000000E+00
  0.00000000E+00  0.00000000E+00  0.00000000E+00
  0.00000000E+00  0.00000000E+00  0.00000000E+00
  0.00000000E+00  0.00000000E+00  0.00000000E+00
  0.00000000E+00  0.00000000E+00  0.00000000E+00
  0.00000000E+00  0.00000000E+00  0.00000000E+00
  0.00000000E+00  0.00000000E+00  0.00000000E+00
  0.00000000E+00  0.00000000E+00  0.00000000E+00
  0.00000000E+00  0.00000000E+00  0.00000000E+00
  0.00000000E+00  0.00000000E+00  0.00000000E+00
  0.00000000E+00  0.00000000E+00  0.00000000E+00
  0.00000000E+00  0.00000000E+00  0.00000000E+00
  0.00000000E+00  0.00000000E+00  0.00000000E+00
  0.00000000E+00  0.00000000E+00  0.00000000E+00
  0.00000000E+00  0.00000000E+00  0.00000000E+00
  0.00000000E+00  0.00000000E+00  0.00000000E+00
  0.00000000E+00  0.00000000E+00  0.00000000E+00
  0.00000000E+00  0.00000000E+00  0.00000000E+00
  0.00000000E+00  0.00000000E+00  0.00000000E+00
  0.00000000E+00  0.00000000E+00  0.00000000E+00
  0.00000000E+00  0.00000000E+00  0.00000000E+00
  0.00000000E+00  0.00000000E+00  0.00000000E+00
  0.00000000E+00  0.00000000E+00  0.00000000E+00
  0.00000000E+00  0.00000000E+00  0.00000000E+00
  0.00000000E+00  0.00000000E+00  0.00000000E+00
  0.00000000E+00  0.00000000E+00  0.00000000E+00
  0.00000000E+00  0.00000000E+00  0.00000000E+00
  0.00000000E+00  0.00000000E+00  0.00000000E+00
  0.00000000E+00  0.00000000E+00  0.00000000E+00
  0.00000000E+00  0.00000000E+00  0.00000000E+00
  0.00000000E+00  0.00000000E+00  0.00000000E+00
  0.00000000E+00  0.00000000E+00  0.00000000E+00
  0.00000000E+00  0.00000000E+00  0.00000000E+00
  0.00000000E+00  0.00000000E+00  0.00000000E+00
  0.00000000E+00  0.00000000E+00  0.00000000E+00
  0.00000000E+00  0.00000000E+00  0.00000000E+00
  0.00000000E+00  0.00000000E+00  0.00000000E+00
  0.00000000E+00  0.00000000E+00  0.00000000E+00
  0.00000000E+00  0.00000000E+00  0.00000000E+00
  0.00000000E+00  0.00000000E+00  0.00000000E+00
  0.00000000E+00  0.00000000E+00  0.00000000E+00
  0.00000000E+00  0.00000000E+00  0.00000000E+00
  0.00000000E+00  0.00000000E+00  0.00000000E+00
  0.00000000E+00  0.00000000E+00  0.00000000E+00
  0.00000000E+00  0.00000000E+00  0.00000000E+00
  0.00000000E+00  0.00000000E+00  0.00000000E+00
  0.00000000E+00  0.00000000E+00  0.00000000E+00
  0.00000000E+00  0.00000000E+00  0.00000000E+00
  0.00000000E+00  0.00000000E+00  0.00000000E+00
  0.00000000E+00  0.00000000E+00  0.00000000E+00
  0.00000000E+00  0.00000000E+00  0.00000000E+00
  0.00000000E+00  0.00000000E+00  0.00000000E+00
  0.00000000E+00  0.00000000E+00  0.00000000E+00
  0.00000000E+00  0.00000000E+00  0.00000000E+00
  0.00000000E+00  0.00000000E+00  0.00000000E+00
  0.00000000E+00  0.00000000E+00  0.00000000E+00
  0.00000000E+00  0.00000000E+00  0.00000000E+00
  0.00000000E+00  0.00000000E+00  0.00000000E+00
  0.00000000E+00  0.00000000E+00  0.00000000E+00
  0.00000000E+00  0.00000000E+00  0.00000000E+00
  0.00000000E+00  0.00000000E+00  0.00000000E+00
  0.00000000E+00  0.00000000E+00  0.00000000E+00
  0.00000000E+00  0.00000000E+00  0.00000000E+00
  0.00000000E+00  0.00000000E+00  0.00000000E+00
  0.00000000E+00  0.00000000E+00  0.00000000E+00
  0.00000000E+00  0.00000000E+00  0.00000000E+00
  0.00000000E+00  0.00000000E+00  0.00000000E+00
  0.00000000E+00  0.00000000E+00  0.00000000E+00
  0.00000000E+00  0.00000000E+00  0.00000000E+00
  0.00000000E+00  0.00000000E+00  0.00000000E+00
  0.00000000E+00  0.00000000E+00  0.00000000E+00
  0.00000000E+00  0.00000000E+00  0.00000000E+00
  0.00000000E+00  0.00000000E+00  0.00000000E+00
  0.00000000E+00  0.00000000E+00  0.00000000E+00
  0.00000000E+00  0.00000000E+00  0.00000000E+00
  0.00000000E+00  0.00000000E+00  0.00000000E+00
  0.00000000E+00  0.00000000E+00  0.00000000E+00
  0.00000000E+00  0.00000000E+00  0.00000000E+00
  0.00000000E+00  0.00000000E+00  0.00000000E+00
  0.00000000E+00  0.00000000E+00  0.00000000E+00
  0.00000000E+00  0.00000000E+00  0.00000000E+00
  0.00000000E+00  0.00000000E+00  0.00000000E+00
  0.00000000E+00  0.00000000E+00  0.00000000E+00
  0.00000000E+00  0.00000000E+00  0.00000000E+00
  0.00000000E+00  0.00000000E+00  0.00000000E+00
  0.00000000E+00  0.00000000E+00  0.00000000E+00
  0.00000000E+00  0.00000000E+00  0.00000000E+00
  0.00000000E+00  0.00000000E+00  0.00000000E+00
  0.00000000E+00  0.00000000E+00  0.00000000E+00
  0.00000000E+00  0.00000000E+00  0.00000000E+00
  0.00000000E+00  0.00000000E+00  0.00000000E+00
  0.00000000E+00  0.00000000E+00  0.00000000E+00
  0.00000000E+00  0.00000000E+00  0.00000000E+00
  0.00000000E+00  0.00000000E+00  0.00000000E+00
  0.00000000E+00  0.00000000E+00  0.00000000E+00
  0.00000000E+00  0.00000000E+00  0.00000000E+00
  0.00000000E+00  0.00000000E+00  0.00000000E+00
  0.00000000E+00  0.00000000E+00  0.00000000E+00
  0.00000000E+00  0.00000000E+00  0.00000000E+00
  0.00000000E+00  0.00000000E+00  0.00000000E+00
  0.00000000E+00  0.00000000E+00  0.00000000E+00
  0.00000000E+00  0.00000000E+00  0.00000000E+00
  0.00000000E+00  0.00000000E+00  0.00000000E+00
  0.00000000E+00  0.00000000E+00  0.00000000E+00
  0.00000000E+00  0.00000000E+00  0.00000000E+00
  0.00000000E+00  0.00000000E+00  0.00000000E+00
  0.00000000E+00  0.00000000E+00  0.00000000E+00
  0.00000000E+00  0.00000000E+00  0.00000000E+00
  0.00000000E+00  0.00000000E+00  0.00000000E+00
  0.00000000E+00  0.00000000E+00  0.00000000E+00
  0.00000000E+00  0.00000000E+00  0.00000000E+00
  0.00000000E+00  0.00000000E+00  0.00000000E+00
  0.00000000E+00  0.00000000E+00  0.00000000E+00
  0.00000000E+00  0.00000000E+00  0.00000000E+00
  0.00000000E+00  0.00000000E+00  0.00000000E+00
  0.00000000E+00  0.00000000E+00  0.00000000E+00
  0.00000000E+00  0.00000000E+00  0.00000000E+00
  0.00000000E+00  0.00000000E+00  0.00000000E+00
  0.00000000E+00  0.00000000E+00  0.00000000E+00
  0.00000000E+00  0.00000000E+00  0.00000000E+00
  0.00000000E+00  0.00000000E+00  0.00000000E+00
  0.00000000E+00  0.00000000E+00  0.00000000E+00
  0.00000000E+00  0.00000000E+00  0.00000000E+00
  0.00000000E+00  0.00000000E+00  0.00000000E+00
  0.00000000E+00  0.00000000E+00  0.00000000E+00
  0.00000000E+00  0.00000000E+00  0.00000000E+00
  0.00000000E+00  0.00000000E+00  0.00000000E+00
  0.00000000E+00  0.00000000E+00  0.00000000E+00
  0.00000000E+00  0.00000000E+00  0.00000000E+00
  0.00000000E+00  0.00000000E+00  0.00000000E+00
  0.00000000E+00  0.00000000E+00  0.00000000E+00
  0.00000000E+00  0.00000000E+00  0.00000000E+00
  0.00000000E+00  0.00000000E+00  0.00000000E+00
  0.00000000E+00  0.00000000E+00  0.00000000E+00
  0.00000000E+00  0.00000000E+00  0.00000000E+00
  0.00000000E+00  0.00000000E+00  0.00000000E+00
  0.00000000E+00  0.00000000E+00  0.00000000E+00
  0.00000000E+00  0.00000000E+00  0.00000000E+00
  0.00000000E+00  0.00000000E+00  0.00000000E+00
  0.00000000E+00  0.00000000E+00  0.00000000E+00
  0.00000000E+00  0.00000000E+00  0.00000000E+00
  0.00000000E+00  0.00000000E+00  0.00000000E+00
  0.00000000E+00  0.00000000E+00  0.00000000E+00
  0.00000000E+00  0.00000000E+00  0.00000000E+00
  0.00000000E+00  0.00000000E+00  0.00000000E+00
  0.00000000E+00  0.00000000E+00  0.00000000E+00
  0.00000000E+00  0.00000000E+00  0.00000000E+00
  0.00000000E+00  0.00000000E+00  0.00000000E+00
  0.00000000E+00  0.00000000E+00  0.00000000E+00
  0.00000000E+00  0.00000000E+00  0.00000000E+00
  0.00000000E+00  0.00000000E+00  0.00000000E+00
  0.00000000E+00  0.00000000E+00  0.00000000E+00
  0.00000000E+00  0.00000000E+00  0.00000000E+00
  0.00000000E+00  0.00000000E+00  0.00000000E+00
  0.00000000E+00  0.00000000E+00  0.00000000E+00
  0.00000000E+00  0.00000000E+00  0.00000000E+00
  0.00000000E+00  0.00000000E+00  0.00000000E+00
  0.00000000E+00  0.00000000E+00  0.00000000E+00
  0.00000000E+00  0.00000000E+00  0.00000000E+00
  0.00000000E+00  0.00000000E+00  0.00000000E+00
  0.00000000E+00  0.00000000E+00  0.00000000E+00
  0.00000000E+00  0.00000000E+00  0.00000000E+00
  0.00000000E+00  0.00000000E+00  0.00000000E+00
  0.00000000E+00  0.00000000E+00  0.00000000E+00
  0.00000000E+00  0.00000000E+00  0.00000000E+00
  0.00000000E+00  0.00000000E+00  0.00000000E+00
  0.00000000E+00  0.00000000E+00  0.00000000E+00
  0.00000000E+00  0.00000000E+00  0.00000000E+00
  0.00000000E+00  0.00000000E+00  0.00000000E+00
  0.00000000E+00  0.00000000E+00  0.00000000E+00
  0.00000000E+00  0.00000000E+00  0.00000000E+00
  0.00000000E+00  0.00000000E+00  0.00000000E+00
  0.00000000E+00  0.00000000E+00  0.00000000E+00
  0.00000000E+00  0.00000000E+00  0.00000000E+00
  0.00000000E+00  0.00000000E+00  0.00000000E+00
  0.00000000E+00  0.00000000E+00  0.00000000E+00
  0.00000000E+00  0.00000000E+00  0.00000000E+00
  0.00000000E+00  0.00000000E+00  0.00000000E+00
  0.00000000E+00  0.00000000E+00  0.00000000E+00
  0.00000000E+00  0.00000000E+00  0.00000000E+00
  0.00000000E+00  0.00000000E+00  0.00000000E+00
  0.00000000E+00  0.00000000E+00  0.00000000E+00
  0.00000000E+00  0.00000000E+00  0.00000000E+00
  0.00000000E+00  0.00000000E+00  0.00000000E+00
  0.00000000E+00  0.00000000E+00  0.00000000E+00
  0.00000000E+00  0.00000000E+00  0.00000000E+00
  0.00000000E+00  0.00000000E+00  0.00000000E+00
  0.00000000E+00  0.00000000E+00  0.00000000E+00
  0.00000000E+00  0.00000000E+00  0.00000000E+00
  0.00000000E+00  0.00000000E+00  0.00000000E+00
  0.00000000E+00  0.00000000E+00  0.00000000E+00
  0.00000000E+00  0.00000000E+00  0.00000000E+00
  0.00000000E+00  0.00000000E+00  0.00000000E+00
  0.00000000E+00  0.00000000E+00  0.00000000E+00
  0.00000000E+00  0.00000000E+00  0.00000000E+00
  0.00000000E+00  0.00000000E+00  0.00000000E+00
  0.00000000E+00  0.00000000E+00  0.00000000E+00
  0.00000000E+00  0.00000000E+00  0.00000000E+00
  0.00000000E+00  0.00000000E+00  0.00000000E+00
  0.00000000E+00  0.00000000E+00  0.00000000E+00
  0.00000000E+00  0.00000000E+00  0.00000000E+00
  0.00000000E+00  0.00000000E+00  0.00000000E+00
  0.00000000E+00  0.00000000E+00  0.00000000E+00
  0.00000000E+00  0.00000000E+00  0.00000000E+00
  0.00000000E+00  0.00000000E+00  0.00000000E+00
  0.00000000E+00  0.00000000E+00  0.00000000E+00
  0.00000000E+00  0.00000000E+00  0.00000000E+00
  0.00000000E+00  0.00000000E+00  0.00000000E+00
  0.00000000E+00  0.00000000E+00  0.00000000E+00
  0.00000000E+00  0.00000000E+00  0.00000000E+00
  0.00000000E+00  0.00000000E+00  0.00000000E+00
  0.00000000E+00  0.00000000E+00  0.00000000E+00
  0.00000000E+00  0.00000000E+00  0.00000000E+00
  0.00000000E+00  0.00000000E+00  0.00000000E+00
  0.00000000E+00  0.00000000E+00  0.00000000E+00
  0.00000000E+00  0.00000000E+00  0.00000000E+00
  0.00000000E+00  0.00000000E+00  0.00000000E+00
  0.00000000E+00  0.00000000E+00  0.00000000E+00
  0.00000000E+00  0.00000000E+00  0.00000000E+00
  0.00000000E+00  0.00000000E+00  0.00000000E+00
  0.00000000E+00  0.00000000E+00  0.00000000E+00
  0.00000000E+00  0.00000000E+00  0.00000000E+00
  0.00000000E+00  0.00000000E+00  0.00000000E+00
  0.00000000E+00  0.00000000E+00  0.00000000E+00
  0.00000000E+00  0.00000000E+00  0.00000000E+00
  0.00000000E+00  0.00000000E+00  0.00000000E+00