bilayer_4                               
   1.00000000000000     
    14.6976995467999991    0.0000000000000000    0.0000000000000000
    -7.3488497733999996   12.7285811846999994    0.0000000000000000
     0.0000000000000000    0.0000000000000000   49.2004013061999999
   H    O 
   192    96
Direct
  0.6658376520449113  0.5645485865822594  0.4500254430947383
  0.6025405270855585  0.4385588283616285  0.4485560921793406
  0.1682374050798279  0.0619444487790636  0.2921718676694919
  0.1650928559439455  0.0645575271789541  0.4486048459463273
  0.3937068525556678  0.3296477399433569  0.2932603634867821
  0.3971553499762048  0.3367725234792924  0.4466818850127610
  0.1047101666956279  0.1686132760306105  0.2141081985418161
  0.1022652657781583  0.1667377657375259  0.3712435037502354
  0.0628898462440496  0.3953881100260269  0.2170465950221455
  0.0599038187680483  0.3952363967185367  0.3694890378093314
  0.1668403055219922  0.1045183515964703  0.2137578828453120
  0.1655039911705043  0.1040204966465713  0.3709930009615413
  0.3949900438703399  0.0632079869593961  0.2140641664097835
  0.3918060336730921  0.0632050187642604  0.3713923723012956
  0.0635559977496957  0.1651214299269508  0.2924793362253941
  0.0625481936666577  0.1697338100831667  0.4477113220508532
  0.3306652960761720  0.3927850047841723  0.2932473479711341
  0.3326407982131646  0.3989992244906935  0.4470192430443592
  0.1684623812146547 -0.0068780154708439  0.1819430902116480
  0.1742107069812293  0.0023168214204350  0.3374251752601549
  0.2348716610626934 -0.0011314194910464  0.2088225213938165
  0.2324828736295821  0.0002537452388689  0.3654461931961654
  0.3292486096256359  0.3297685892110069  0.1827142693067128
  0.3221483303872971  0.3234144184020645  0.3372618026216166
  0.2646155962287184  0.2646279289679749  0.2093397842976117
  0.2621683986906523  0.2639482052030538  0.3652302721194521
  0.9949258042067515  0.1771320148683976  0.1829763132475248
  0.0012664302848093  0.1711369638916380  0.3374857837829894
 -0.0008009134032591  0.2373897106843225  0.2109226702656993
 -0.0022674703625698  0.2336645838813523  0.3644572761915828
  0.3266500618760480 -0.0005369967420586  0.2585234685570988
  0.3247344905142682  0.0012332421596216  0.4158546710534655
  0.2654325869397628 -0.0007418727732652  0.2862838343793946
  0.2625599397496122  0.0012624567175925  0.4434390920822706
  0.1720921038683257  0.1709486873305663  0.2586113274469094
  0.1715535064617881  0.1727725138846684  0.4155000070313156
  0.2335918381369944  0.2322364615535658  0.2863063297692098
  0.2354915615309849  0.2373895051465908  0.4426617793948037
 -0.0015888092448814  0.3257385218499660  0.2614346100266453
 -0.0022605567068698  0.3281488746839979  0.4134381783464958
 -0.0003751408369884  0.2630876153412139  0.2885950013162275
 -0.0012897087930803  0.2668473530333944  0.4411841614017117
  0.6675143806463816  0.0627365200650067  0.2933361294666218
  0.6651292929610068  0.0641158447828491  0.4466593072078306
  0.8951493820045440  0.3324680264481602  0.2939180926997921
  0.8942188297253183  0.3328602194572458  0.4467413116775207
  0.4355711366949142  0.1023077638186337  0.2923044712687308
  0.4355075495089418  0.1077417347331356  0.4476887345088879
  0.6055264613933006  0.1684783694307493  0.2163043144094743
  0.6000270737535436  0.1663876067438279  0.3697755251899220
  0.5632075223645473  0.3953759279596759  0.2154450032997452
  0.5616921485387073  0.3973338960090242  0.3687943001736043
  0.4378289819921533  0.3327092459839731  0.2160165548806925
  0.4350412381558463  0.3338980360909886  0.3694770494767491
  0.6679630901904878  0.1050143679205149  0.2167971852303759
  0.6640363026889966  0.1038038590238105  0.3696525293574118
  0.8958216198122052  0.0635868449405671  0.2163526599094158
  0.8935497344281115  0.0622267262127766  0.3697572215921331
  0.5616936635702791  0.1656339394554647  0.2936047899073049
  0.5623222780089205  0.1700324526012212  0.4467210267308916
  0.8327894028721701  0.3961377546320766  0.2921219760979487
  0.8303286248719981  0.3957352951381444  0.4481774974133199
  0.6754005795668938 -0.0006407400925940  0.1842788062310439
  0.6704830733249432 -0.0001204949217576  0.3372063846021530
  0.7370449279080987 -0.0002532840970214  0.2115798104102730
  0.7319110255647616 -0.0001340251280797  0.3647004915440922
  0.8254712967863174  0.3179748574179472  0.1826500188176225
  0.8246783973431909  0.3309286403222402  0.3376355233945451
  0.7639707149410782  0.2627474501356942  0.2105214947508748
  0.7615699747674566  0.2659050588705058  0.3646543860794393
  0.5053034515761163  0.1798272376976088  0.1828430253340006
  0.4942100338452095  0.1692356237368286  0.3374295268076894
  0.5012364471829110  0.2375594440265053  0.2104796231044763
  0.4967857758931633  0.2347128737510177  0.3644128174304152
  0.8286698410177530 -0.0014092407884240  0.2611247463143936
  0.8260940800147438  0.0011333868213875  0.4138484717961542
  0.7654101545160269 -0.0014141473625950  0.2883087303247765
  0.7636179828902527  0.0017473971703635  0.4413602670189962
  0.6721649223235352  0.1728765294472956  0.2611129598625057
  0.6699928435235128  0.1728671218780550  0.4136698500607348
  0.7342506159625006  0.2350291146833377  0.2884792086427150
  0.7330811531440058  0.2351937602287159  0.4412860460577693
  0.5001839010237351  0.3271108660689963  0.2607685656317082
  0.5018048232475566  0.3326230903340102  0.4134747776772877
  0.4990282728195292  0.2637812486330073  0.2880549345179024
  0.5004155361461549  0.2688303939165947  0.4409771999504589
  0.1670087936488923  0.5620018148676731  0.2933675675662755
  0.1653399037100724  0.5651143237931837  0.4465950683774261
  0.3946725353767868  0.8321872222613077  0.2938338427015406
  0.3945746173278005  0.8336953259203457  0.4467959380336356
  0.3342113938577663  0.4382162214785156  0.2162182110802840
  0.3292964812025522  0.4358935632417764  0.3696823773535934
  0.1047058614916468  0.6682120220177777  0.2162669539255754
  0.1000923967862374  0.6663454600124370  0.3698515164993696
  0.0625259917373406  0.8948447224512495  0.2165733239759317
  0.0604914820751710  0.8959153886109853  0.3693418471000929
  0.1669323562665291  0.6044445518136863  0.2168223583214872
  0.1645123853822341  0.6042415703136985  0.3696890031576877
  0.3959968113099047  0.5640509646746242  0.2161813959479877
  0.3936224011962934  0.5624005743173428  0.3697828031764417
  0.0610151014412831  0.6643715307372531  0.2938685533723745
  0.0621273235053336  0.6696999468996011  0.4468786288442790
  0.3321193929921773  0.8957663290553523  0.2922959261632421
  0.3313693986370296  0.8973614874144777  0.4480100034167693
  0.1038410216237523  0.4352975529638674  0.2935259927844502
  0.1019519159997311  0.4383106453889776  0.4463901547552016
  0.1752437493325233  0.4994469676163493  0.1842578670459698
  0.1704315282283622  0.4997022691570769  0.3372065842269806
  0.2371112452746736  0.5000854935251924  0.2115429666477740
  0.2319641944124416  0.4998200834755174  0.3646776849462550
  0.3246377989596669  0.8186772938372828  0.1831446972249762
  0.3248057386897172  0.8307816115531829  0.3375601660863360
  0.2632280450929090  0.7624004791599309  0.2109282657773904
  0.2617716689517748  0.7662310427584597  0.3646245313754224
  0.0066024161880651  0.6831124181821102  0.1827787249715376
 -0.0069327379709249  0.6673076362121738  0.3376665712263449
  0.0009480374364157  0.7378780170535643  0.2108113897173700
 -0.0042425851287809  0.7332507038076331  0.3645844361492037
  0.3292498244023383  0.4999007024235181  0.2610600878569233
  0.3254502969377625  0.5006218862052368  0.4137716282245975
  0.2656904362264603  0.4990159500723303  0.2882730285475613
  0.2629145701150476  0.5015613715967367  0.4412633836294931
  0.1707836940595071  0.6718343071671690  0.2611905322655557
  0.1705211181364503  0.6741284280452442  0.4137062313811954
  0.2334717688269629  0.7342328772431865  0.2884751957897179
  0.2335202763895318  0.7366199515348780  0.4413150961095454
 -0.0003796642650028  0.8264536727182626  0.2616241178398310
 -0.0011085701299975  0.8294104094754779  0.4136215525073828
 -0.0013762057351869  0.7628118128414296  0.2887787064808899
 -0.0009478414592614  0.7672453245876164  0.4412947649035870
  0.6686472700524579  0.5624284160701348  0.2913406360556789
  0.8932568743562135  0.8288484125819097  0.2939138729184802
  0.8956950337174981  0.8356193706867810  0.4469183755206017
  0.4378585758351924  0.6028304370251323  0.2937133824692802
  0.4344948855654062  0.6054376482624821  0.4469642462615481
  0.8322063886740489  0.4371131013925696  0.2134034484544971
  0.8278597320820286  0.4365168258266161  0.3716554934229646
  0.6045627162612682  0.6684206489189670  0.2138081394487775
  0.6018346477075585  0.6656474188519623  0.3716507697885842
  0.5628377844093649  0.8954632825100926  0.2170504500952463
  0.5599446714496426  0.8952060722797742  0.3695481755057360
  0.4368459262737191  0.8323134412430684  0.2166948582042227
  0.4333841353683461  0.8322514787968019  0.3696685654962438
  0.6667370172120919  0.6044281262816001  0.2132148350678254
  0.6653049743395718  0.6033394700300140  0.3708771891587307
  0.8950215144331467  0.5635097261533958  0.2134684707136932
  0.8909722888715204  0.5622124285230777  0.3717138566908663
  0.5638216930444795  0.6659491024847652  0.2924634322832575
  0.5613333401011787  0.6686521906045352  0.4480270799611858
  0.8301712046252189  0.8919736953693892  0.2935777306107649
  0.8323209601046495  0.8989774354651129  0.4471082020506013
  0.6058118719125333  0.4363293206140703  0.2925981576642275
  0.6701058022859350  0.4952847311648446  0.1807110713172563
  0.6756158839807976  0.5029663636624154  0.3365665015258723
  0.7351998202736683  0.4993864989263350  0.2077316818387506
  0.7328728586457127  0.5004889858614783  0.3648335829682175
  0.8309491031756800  0.8296167847400158  0.1827528192471037
  0.8205516671668298  0.8222163070842798  0.3376979449528728
  0.7646325141283217  0.7643359811297334  0.2091913631161073
  0.7611851751257928  0.7630477262492864  0.3657405623480406
  0.4950275463078959  0.6777983360314210  0.1827473524235722
  0.5018605192350623  0.6713909629444582  0.3376589243031180
  0.4993503991042968  0.7376138444523886  0.2107813925699631
  0.4979915739349177  0.7337491062920700  0.3646085351756190
  0.8277270669552789  0.4992410721449492  0.2578677754361509
  0.8225417803501118  0.5000464931214584  0.4162755660714154
  0.7657689168946870  0.4991720193713906  0.2854394086108224
  0.7624283117947340  0.5007359719986160  0.4442356417064909
  0.6724113394316973  0.6718688276197445  0.2583540647597284
  0.6706678940411634  0.6703058740498082  0.4160906092065463
  0.7335365893582730  0.7323935780077908  0.2862400084371009
  0.7343173400099581  0.7366725061881275  0.4430631339060725
  0.4987433319505223  0.8261187204293193  0.2614623056027344
  0.4975081615933539  0.8275927159453292  0.4135179361892093
  0.5000026688104126  0.7639029849290978  0.2886959911815086
  0.4979454696763460  0.7660240398820719  0.4412832054750579
  0.9374397396568440  0.1017817031424515  0.2936124217809600
  0.9356470079935425  0.1062723740113586  0.4468883741615917
  0.9369771055155410  0.3324217053077782  0.2165017787482205
  0.9332965156699019  0.3322109560012890  0.3696484780629524
  0.9350859336277255  0.6012035614245672  0.2922091691188106
  0.9352753915132991  0.6063986977067494  0.4480078691835835
  0.9371746274200725  0.8320957591649352  0.2166971782643828
  0.9336973621376166  0.8324101118586682  0.3697241767165662
  0.3319432531760765  0.9368031057645466  0.2141386921891887
  0.3290596641606096  0.9373206830485364  0.3714331216889973
  0.1054945343186497  0.9359552463115977  0.2936104148436475
  0.1013682267368213  0.9378855997148794  0.4475481393048446
  0.8341160596828185  0.9377537187280675  0.2162078745856049
  0.8288940593438261  0.9356396704663026  0.3698943779109609
  0.6038878843709833  0.9360165521167043  0.2935294188939678
  0.6021688508410271  0.9373997331007142  0.4464607186140453
  0.1675071753435106 -0.0023352042996748  0.2017343915296367
  0.1677652384888298  0.0006952490650087  0.3573535109781495
  0.1719110118269578  0.0002347340975527  0.2995062831513227
  0.1672557311446502  0.0002534277363808  0.4544605979591780
  0.3318077915712381  0.3316850922416788  0.2025513611086571
  0.3268723769157865  0.3291691558174463  0.3572094913850845
  0.3272055941503716  0.3262311250734238  0.2996008261607150
  0.3306642497199858  0.3329684829871843  0.4531909754255016
 -0.0014540438337131  0.1717995145817595  0.2026948071416263
 -0.0011233959562340  0.1679504356747814  0.3574825166230791
  0.0014116671313029  0.1673630638745058  0.3000624395469449
 -0.0014852325832775  0.1732771156729881  0.4530592496737869
  0.3306322670790386 -0.0009574962462721  0.2784818006405668
  0.3289847166236193  0.0020902221008728  0.4358497920134887
  0.3296094890261564  0.0000153249000752  0.2208212880374683
  0.3268082100464180  0.0002404974120730  0.3784570742414796
  0.1683600685950293  0.1666777153218253  0.2785720197514809
  0.1688665452751190  0.1708612977906595  0.4355157130090294
  0.1696621945472098  0.1698131278530062  0.2208352853035248
  0.1675990829618068  0.1689421493847104  0.3781226399444491
 -0.0011062465529088  0.3287766351002058  0.2814245116157985
 -0.0015699075764129  0.3325312444037044  0.4334256316794855
 -0.0005442318429474  0.3305572965228085  0.2239492249260651
 -0.0033826161844274  0.3293844850653508  0.3760910635849128
  0.6708720332915241 -0.0001983873329591  0.2040877541188960
  0.6661982688863939 -0.0002235189462463  0.3571900205616810
  0.6698727074468968 -0.0005616377343614  0.3000171866502236
  0.6687953903076673  0.0007591868504506  0.4526401995549096
  0.8298168868255792  0.3274957048046094  0.2023544679570161
  0.8274216697960632  0.3325511362355977  0.3576337463510680
  0.8299227561122765  0.3320519873998120  0.3001269447194938
  0.8271282644395848  0.3280047129540804  0.4531418734807316
  0.5018117068005874  0.1721343570070198  0.2025952769007055
  0.4950046596742290  0.1675973644655889  0.3574313065825103
  0.4974143017599670  0.1668259922488529  0.2999402906061517
  0.4999881196906590  0.1752739040902268  0.4528381201546413
  0.8310927088653247 -0.0021749733303178  0.2811142309039947
  0.8299933287941292  0.0022248590828238  0.4338459837858628
  0.8319884206350626  0.0001403869460164  0.2236359766326154
  0.8275425090099903 -0.0004993393839280  0.3765089412737901
  0.6687900416605953  0.1688831524504301  0.2810911808722081
  0.6666847981364294  0.1695621033319533  0.4336689336453641
  0.6700267885819775  0.1702795152797667  0.2236035178965256
  0.6660628785974652  0.1693096955384449  0.3763370931337385
  0.4996670948629349  0.3299800667176011  0.2807505210824426
  0.5010404302660738  0.3353240046125605  0.4334699658315579
  0.5010572953156540  0.3313461371366552  0.2231101869256066
  0.4989675890398797  0.3323609430669333  0.3759563232724730
  0.1707369706365905  0.4997741416046738  0.2040677983044282
  0.1662882387434998  0.4998717730189673  0.3571904503477136
  0.1697011904569564  0.4988418937213195  0.3000184853092169
  0.1686736855969810  0.5015684639765509  0.4525647063644746
  0.3291808500442188  0.8273848093723503  0.2028756731286363
  0.3276640520638373  0.8327692700473270  0.3575571852079888
  0.3292487002356780  0.8313293435712352  0.3000612855141815
  0.3277228825875128  0.8295292210018345  0.4531246355880199
  0.0020072258102311  0.6733109526113314  0.2024704510792554
  0.9943641537902530  0.6662332187547917  0.3576707022036502
 -0.0034870361017208  0.6650855562593578  0.3002255728116667
 -0.0004948891307688  0.6741006708606427  0.4531556183744375
  0.3316949288585809  0.4989680018654189  0.2810475186063278
  0.3291177116251850  0.5016041333847323  0.4337721676715849
  0.3322526526881082  0.5007902706818438  0.2235675208207619
  0.3276069909776632  0.4994150402008980  0.3764358460999542
  0.1679370074324474  0.6679657327721635  0.2811734229585952
  0.1671952662992843  0.6709232543937476  0.4337038674847233
  0.1687897959561068  0.6695119000374465  0.2237073095359586
  0.1664410274813998  0.6697227410600043  0.3763430728180704
 -0.0004458523594430  0.8293270262021878  0.2816114900321529
 -0.0009770290260054  0.8331829855959020  0.4336087945144208
  0.0000012570327882  0.8304094571987531  0.2239630641754974
 -0.0025709805609697  0.8304429316126387  0.3761744638412250
  0.6681915694652329  0.4984837439133586  0.2005122053274569
  0.6688011099932687  0.5015070394628719  0.3564765366052436
  0.6724575416382065  0.5004677748382017  0.2984400979953983
  0.8321433344262691  0.8314667257934956  0.2025962136287511
  0.8256378276044309  0.8282851117209438  0.3576373185689639
  0.8264436236993581  0.8253834602156381  0.3000010240071254
  0.8295382114439775  0.8326614351227699  0.4533671457775457
  0.4986581041027253  0.6721447997437043  0.2024551927778256
  0.4991989491943857  0.6680469410306851  0.3576521205011517
  0.5019251114384398  0.6682551122610741  0.3001908352456668
  0.4972597034769183  0.6723407671894076  0.4532341161269431
  0.8311637897524556  0.4987276705555033  0.2778341468625095
  0.8279128129501478  0.5008443280118849  0.4362413642896532
  0.8295384141191048  0.5001198016628903  0.2200974577721921
  0.8254374009443519  0.4994183327246176  0.3786154646713859
  0.6682919064873691  0.6673292146079149  0.2783053513662238
  0.6679577325884880  0.6694494112539845  0.4361005068738590
  0.6693612344211055  0.6692932477778590  0.2205326182144297
  0.6668840298969034  0.6672871861857295  0.3785296508048748
  0.4990249477568605  0.8293781111302658  0.2814490197062540
  0.4982081755189925  0.8319578911360703  0.4335044575203307
  0.4995800900189939  0.8305123146715391  0.2239714673464007
  0.4966376103094770  0.8294233474467206  0.3761672403031575
  0.6678865293263944  0.5002513707468935  0.4559181364899483
 
  0.00000000E+00  0.00000000E+00  0.00000000E+00
  0.00000000E+00  0.00000000E+00  0.00000000E+00
  0.00000000E+00  0.00000000E+00  0.00000000E+00
  0.00000000E+00  0.00000000E+00  0.00000000E+00
  0.00000000E+00  0.00000000E+00  0.00000000E+00
  0.00000000E+00  0.00000000E+00  0.00000000E+00
  0.00000000E+00  0.00000000E+00  0.00000000E+00
  0.00000000E+00  0.00000000E+00  0.00000000E+00
  0.00000000E+00  0.00000000E+00  0.00000000E+00
  0.00000000E+00  0.00000000E+00  0.00000000E+00
  0.00000000E+00  0.00000000E+00  0.00000000E+00
  0.00000000E+00  0.00000000E+00  0.00000000E+00
  0.00000000E+00  0.00000000E+00  0.00000000E+00
  0.00000000E+00  0.00000000E+00  0.00000000E+00
  0.00000000E+00  0.00000000E+00  0.00000000E+00
  0.00000000E+00  0.00000000E+00  0.00000000E+00
  0.00000000E+00  0.00000000E+00  0.00000000E+00
  0.00000000E+00  0.00000000E+00  0.00000000E+00
  0.00000000E+00  0.00000000E+00  0.00000000E+00
  0.00000000E+00  0.00000000E+00  0.00000000E+00
  0.00000000E+00  0.00000000E+00  0.00000000E+00
  0.00000000E+00  0.00000000E+00  0.00000000E+00
  0.00000000E+00  0.00000000E+00  0.00000000E+00
  0.00000000E+00  0.00000000E+00  0.00000000E+00
  0.00000000E+00  0.00000000E+00  0.00000000E+00
  0.00000000E+00  0.00000000E+00  0.00000000E+00
  0.00000000E+00  0.00000000E+00  0.00000000E+00
  0.00000000E+00  0.00000000E+00  0.00000000E+00
  0.00000000E+00  0.00000000E+00  0.00000000E+00
  0.00000000E+00  0.00000000E+00  0.00000000E+00
  0.00000000E+00  0.00000000E+00  0.00000000E+00
  0.00000000E+00  0.00000000E+00  0.00000000E+00
  0.00000000E+00  0.00000000E+00  0.00000000E+00
  0.00000000E+00  0.00000000E+00  0.00000000E+00
  0.00000000E+00  0.00000000E+00  0.00000000E+00
  0.00000000E+00  0.00000000E+00  0.00000000E+00
  0.00000000E+00  0.00000000E+00  0.00000000E+00
  0.00000000E+00  0.00000000E+00  0.00000000E+00
  0.00000000E+00  0.00000000E+00  0.00000000E+00
  0.00000000E+00  0.00000000E+00  0.00000000E+00
  0.00000000E+00  0.00000000E+00  0.00000000E+00
  0.00000000E+00  0.00000000E+00  0.00000000E+00
  0.00000000E+00  0.00000000E+00  0.00000000E+00
  0.00000000E+00  0.00000000E+00  0.00000000E+00
  0.00000000E+00  0.00000000E+00  0.00000000E+00
  0.00000000E+00  0.00000000E+00  0.00000000E+00
  0.00000000E+00  0.00000000E+00  0.00000000E+00
  0.00000000E+00  0.00000000E+00  0.00000000E+00
  0.00000000E+00  0.00000000E+00  0.00000000E+00
  0.00000000E+00  0.00000000E+00  0.00000000E+00
  0.00000000E+00  0.00000000E+00  0.00000000E+00
  0.00000000E+00  0.00000000E+00  0.00000000E+00
  0.00000000E+00  0.00000000E+00  0.00000000E+00
  0.00000000E+00  0.00000000E+00  0.00000000E+00
  0.00000000E+00  0.00000000E+00  0.00000000E+00
  0.00000000E+00  0.00000000E+00  0.00000000E+00
  0.00000000E+00  0.00000000E+00  0.00000000E+00
  0.00000000E+00  0.00000000E+00  0.00000000E+00
  0.00000000E+00  0.00000000E+00  0.00000000E+00
  0.00000000E+00  0.00000000E+00  0.00000000E+00
  0.00000000E+00  0.00000000E+00  0.00000000E+00
  0.00000000E+00  0.00000000E+00  0.00000000E+00
  0.00000000E+00  0.00000000E+00  0.00000000E+00
  0.00000000E+00  0.00000000E+00  0.00000000E+00
  0.00000000E+00  0.00000000E+00  0.00000000E+00
  0.00000000E+00  0.00000000E+00  0.00000000E+00
  0.00000000E+00  0.00000000E+00  0.00000000E+00
  0.00000000E+00  0.00000000E+00  0.00000000E+00
  0.00000000E+00  0.00000000E+00  0.00000000E+00
  0.00000000E+00  0.00000000E+00  0.00000000E+00
  0.00000000E+00  0.00000000E+00  0.00000000E+00
  0.00000000E+00  0.00000000E+00  0.00000000E+00
  0.00000000E+00  0.00000000E+00  0.00000000E+00
  0.00000000E+00  0.00000000E+00  0.00000000E+00
  0.00000000E+00  0.00000000E+00  0.00000000E+00
  0.00000000E+00  0.00000000E+00  0.00000000E+00
  0.00000000E+00  0.00000000E+00  0.00000000E+00
  0.00000000E+00  0.00000000E+00  0.00000000E+00
  0.00000000E+00  0.00000000E+00  0.00000000E+00
  0.00000000E+00  0.00000000E+00  0.00000000E+00
  0.00000000E+00  0.00000000E+00  0.00000000E+00
  0.00000000E+00  0.00000000E+00  0.00000000E+00
  0.00000000E+00  0.00000000E+00  0.00000000E+00
  0.00000000E+00  0.00000000E+00  0.00000000E+00
  0.00000000E+00  0.00000000E+00  0.00000000E+00
  0.00000000E+00  0.00000000E+00  0.00000000E+00
  0.00000000E+00  0.00000000E+00  0.00000000E+00
  0.00000000E+00  0.00000000E+00  0.00000000E+00
  0.00000000E+00  0.00000000E+00  0.00000000E+00
  0.00000000E+00  0.00000000E+00  0.00000000E+00
  0.00000000E+00  0.00000000E+00  0.00000000E+00
  0.00000000E+00  0.00000000E+00  0.00000000E+00
  0.00000000E+00  0.00000000E+00  0.00000000E+00
  0.00000000E+00  0.00000000E+00  0.00000000E+00
  0.00000000E+00  0.00000000E+00  0.00000000E+00
  0.00000000E+00  0.00000000E+00  0.00000000E+00
  0.00000000E+00  0.00000000E+00  0.00000000E+00
  0.00000000E+00  0.00000000E+00  0.00000000E+00
  0.00000000E+00  0.00000000E+00  0.00000000E+00
  0.00000000E+00  0.00000000E+00  0.00000000E+00
  0.00000000E+00  0.00000000E+00  0.00000000E+00
  0.00000000E+00  0.00000000E+00  0.00000000E+00
  0.00000000E+00  0.00000000E+00  0.00000000E+00
  0.00000000E+00  0.00000000E+00  0.00000000E+00
  0.00000000E+00  0.00000000E+00  0.00000000E+00
  0.00000000E+00  0.00000000E+00  0.00000000E+00
  0.00000000E+00  0.00000000E+00  0.00000000E+00
  0.00000000E+00  0.00000000E+00  0.00000000E+00
  0.00000000E+00  0.00000000E+00  0.00000000E+00
  0.00000000E+00  0.00000000E+00  0.00000000E+00
  0.00000000E+00  0.00000000E+00  0.00000000E+00
  0.00000000E+00  0.00000000E+00  0.00000000E+00
  0.00000000E+00  0.00000000E+00  0.00000000E+00
  0.00000000E+00  0.00000000E+00  0.00000000E+00
  0.00000000E+00  0.00000000E+00  0.00000000E+00
  0.00000000E+00  0.00000000E+00  0.00000000E+00
  0.00000000E+00  0.00000000E+00  0.00000000E+00
  0.00000000E+00  0.00000000E+00  0.00000000E+00
  0.00000000E+00  0.00000000E+00  0.00000000E+00
  0.00000000E+00  0.00000000E+00  0.00000000E+00
  0.00000000E+00  0.00000000E+00  0.00000000E+00
  0.00000000E+00  0.00000000E+00  0.00000000E+00
  0.00000000E+00  0.00000000E+00  0.00000000E+00
  0.00000000E+00  0.00000000E+00  0.00000000E+00
  0.00000000E+00  0.00000000E+00  0.00000000E+00
  0.00000000E+00  0.00000000E+00  0.00000000E+00
  0.00000000E+00  0.00000000E+00  0.00000000E+00
  0.00000000E+00  0.00000000E+00  0.00000000E+00
  0.00000000E+00  0.00000000E+00  0.00000000E+00
  0.00000000E+00  0.00000000E+00  0.00000000E+00
  0.00000000E+00  0.00000000E+00  0.00000000E+00
  0.00000000E+00  0.00000000E+00  0.00000000E+00
  0.00000000E+00  0.00000000E+00  0.00000000E+00
  0.00000000E+00  0.00000000E+00  0.00000000E+00
  0.00000000E+00  0.00000000E+00  0.00000000E+00
  0.00000000E+00  0.00000000E+00  0.00000000E+00
  0.00000000E+00  0.00000000E+00  0.00000000E+00
  0.00000000E+00  0.00000000E+00  0.00000000E+00
  0.00000000E+00  0.00000000E+00  0.00000000E+00
  0.00000000E+00  0.00000000E+00  0.00000000E+00
  0.00000000E+00  0.00000000E+00  0.00000000E+00
  0.00000000E+00  0.00000000E+00  0.00000000E+00
  0.00000000E+00  0.00000000E+00  0.00000000E+00
  0.00000000E+00  0.00000000E+00  0.00000000E+00
  0.00000000E+00  0.00000000E+00  0.00000000E+00
  0.00000000E+00  0.00000000E+00  0.00000000E+00
  0.00000000E+00  0.00000000E+00  0.00000000E+00
  0.00000000E+00  0.00000000E+00  0.00000000E+00
  0.00000000E+00  0.00000000E+00  0.00000000E+00
  0.00000000E+00  0.00000000E+00  0.00000000E+00
  0.00000000E+00  0.00000000E+00  0.00000000E+00
  0.00000000E+00  0.00000000E+00  0.00000000E+00
  0.00000000E+00  0.00000000E+00  0.00000000E+00
  0.00000000E+00  0.00000000E+00  0.00000000E+00
  0.00000000E+00  0.00000000E+00  0.00000000E+00
  0.00000000E+00  0.00000000E+00  0.00000000E+00
  0.00000000E+00  0.00000000E+00  0.00000000E+00
  0.00000000E+00  0.00000000E+00  0.00000000E+00
  0.00000000E+00  0.00000000E+00  0.00000000E+00
  0.00000000E+00  0.00000000E+00  0.00000000E+00
  0.00000000E+00  0.00000000E+00  0.00000000E+00
  0.00000000E+00  0.00000000E+00  0.00000000E+00
  0.00000000E+00  0.00000000E+00  0.00000000E+00
  0.00000000E+00  0.00000000E+00  0.00000000E+00
  0.00000000E+00  0.00000000E+00  0.00000000E+00
  0.00000000E+00  0.00000000E+00  0.00000000E+00
  0.00000000E+00  0.00000000E+00  0.00000000E+00
  0.00000000E+00  0.00000000E+00  0.00000000E+00
  0.00000000E+00  0.00000000E+00  0.00000000E+00
  0.00000000E+00  0.00000000E+00  0.00000000E+00
  0.00000000E+00  0.00000000E+00  0.00000000E+00
  0.00000000E+00  0.00000000E+00  0.00000000E+00
  0.00000000E+00  0.00000000E+00  0.00000000E+00
  0.00000000E+00  0.00000000E+00  0.00000000E+00
  0.00000000E+00  0.00000000E+00  0.00000000E+00
  0.00000000E+00  0.00000000E+00  0.00000000E+00
  0.00000000E+00  0.00000000E+00  0.00000000E+00
  0.00000000E+00  0.00000000E+00  0.00000000E+00
  0.00000000E+00  0.00000000E+00  0.00000000E+00
  0.00000000E+00  0.00000000E+00  0.00000000E+00
  0.00000000E+00  0.00000000E+00  0.00000000E+00
  0.00000000E+00  0.00000000E+00  0.00000000E+00
  0.00000000E+00  0.00000000E+00  0.00000000E+00
  0.00000000E+00  0.00000000E+00  0.00000000E+00
  0.00000000E+00  0.00000000E+00  0.00000000E+00
  0.00000000E+00  0.00000000E+00  0.00000000E+00
  0.00000000E+00  0.00000000E+00  0.00000000E+00
  0.00000000E+00  0.00000000E+00  0.00000000E+00
  0.00000000E+00  0.00000000E+00  0.00000000E+00
  0.00000000E+00  0.00000000E+00  0.00000000E+00
  0.00000000E+00  0.00000000E+00  0.00000000E+00
  0.00000000E+00  0.00000000E+00  0.00000000E+00
  0.00000000E+00  0.00000000E+00  0.00000000E+00
  0.00000000E+00  0.00000000E+00  0.00000000E+00
  0.00000000E+00  0.00000000E+00  0.00000000E+00
  0.00000000E+00  0.00000000E+00  0.00000000E+00
  0.00000000E+00  0.00000000E+00  0.00000000E+00
  0.00000000E+00  0.00000000E+00  0.00000000E+00
  0.00000000E+00  0.00000000E+00  0.00000000E+00
  0.00000000E+00  0.00000000E+00  0.00000000E+00
  0.00000000E+00  0.00000000E+00  0.00000000E+00
  0.00000000E+00  0.00000000E+00  0.00000000E+00
  0.00000000E+00  0.00000000E+00  0.00000000E+00
  0.00000000E+00  0.00000000E+00  0.00000000E+00
  0.00000000E+00  0.00000000E+00  0.00000000E+00
  0.00000000E+00  0.00000000E+00  0.00000000E+00
  0.00000000E+00  0.00000000E+00  0.00000000E+00
  0.00000000E+00  0.00000000E+00  0.00000000E+00
  0.00000000E+00  0.00000000E+00  0.00000000E+00
  0.00000000E+00  0.00000000E+00  0.00000000E+00
  0.00000000E+00  0.00000000E+00  0.00000000E+00
  0.00000000E+00  0.00000000E+00  0.00000000E+00
  0.00000000E+00  0.00000000E+00  0.00000000E+00
  0.00000000E+00  0.00000000E+00  0.00000000E+00
  0.00000000E+00  0.00000000E+00  0.00000000E+00
  0.00000000E+00  0.00000000E+00  0.00000000E+00
  0.00000000E+00  0.00000000E+00  0.00000000E+00
  0.00000000E+00  0.00000000E+00  0.00000000E+00
  0.00000000E+00  0.00000000E+00  0.00000000E+00
  0.00000000E+00  0.00000000E+00  0.00000000E+00
  0.00000000E+00  0.00000000E+00  0.00000000E+00
  0.00000000E+00  0.00000000E+00  0.00000000E+00
  0.00000000E+00  0.00000000E+00  0.00000000E+00
  0.00000000E+00  0.00000000E+00  0.00000000E+00
  0.00000000E+00  0.00000000E+00  0.00000000E+00
  0.00000000E+00  0.00000000E+00  0.00000000E+00
  0.00000000E+00  0.00000000E+00  0.00000000E+00
  0.00000000E+00  0.00000000E+00  0.00000000E+00
  0.00000000E+00  0.00000000E+00  0.00000000E+00
  0.00000000E+00  0.00000000E+00  0.00000000E+00
  0.00000000E+00  0.00000000E+00  0.00000000E+00
  0.00000000E+00  0.00000000E+00  0.00000000E+00
  0.00000000E+00  0.00000000E+00  0.00000000E+00
  0.00000000E+00  0.00000000E+00  0.00000000E+00
  0.00000000E+00  0.00000000E+00  0.00000000E+00
  0.00000000E+00  0.00000000E+00  0.00000000E+00
  0.00000000E+00  0.00000000E+00  0.00000000E+00
  0.00000000E+00  0.00000000E+00  0.00000000E+00
  0.00000000E+00  0.00000000E+00  0.00000000E+00
  0.00000000E+00  0.00000000E+00  0.00000000E+00
  0.00000000E+00  0.00000000E+00  0.00000000E+00
  0.00000000E+00  0.00000000E+00  0.00000000E+00
  0.00000000E+00  0.00000000E+00  0.00000000E+00
  0.00000000E+00  0.00000000E+00  0.00000000E+00
  0.00000000E+00  0.00000000E+00  0.00000000E+00
  0.00000000E+00  0.00000000E+00  0.00000000E+00
  0.00000000E+00  0.00000000E+00  0.00000000E+00