bilayer_4
1.0
       29.3953990936         0.0000000000         0.0000000000
      -14.6976995468        25.4571623695         0.0000000000
        0.0000000000         0.0000000000        49.2004013062
    H    O
  768  384
Cartesian
     9.370640502        10.926223546        24.351031960
     9.370640940        12.530939582        24.351031960
     2.021790838         0.802357829        14.291032556
    -5.327059264        13.530939582        14.291032556
    16.719491042         0.802357829        14.291032556
     9.370640940        13.530939582        14.291032556
     2.021790838         0.802357829        22.351031960
    -5.327059264        13.530939582        22.351031960
    16.719491042         0.802357829        22.351031960
     3.358391621         4.212189641        14.291032556
    -3.990458591        16.940771584        14.291032556
    18.056091167         4.212189641        14.291032556
    10.707240956        16.940771584        14.291032556
     3.358391621         4.212189641        22.351031960
    -3.990458591        16.940771584        22.351031960
    18.056091167         4.212189641        22.351031960
    10.707240956        16.940771584        22.351031960
     0.314304927         2.152676033        10.277362150
    -7.034545285        14.881257976        10.277362150
    15.012004364         2.152676033        10.277362150
     7.663154152        14.881257976        10.277362150
     0.314304927         2.152676033        18.337362287
    -7.034545285        14.881257976        18.337362287
    15.012004364         2.152676033        18.337362287
     7.663154152        14.881257976        18.337362287
    -1.967305274         5.015756620        10.277362150
    -9.316155048        17.744337805        10.277362150
    12.730393506         5.015756620        10.277362150
     5.381543733        17.744337805        10.277362150
    -1.967305274         5.015756620        18.337362287
    -9.316155048        17.744337805        18.337362287
    12.730393506         5.015756620        18.337362287
     5.381543733        17.744337805        18.337362287
     1.707119448         1.348534067        10.277362150
    -5.641730270        14.077115157        10.277362150
    16.404818338         1.348534067        10.277362150
     9.055968619        14.077115157        10.277362150
     1.707119448         1.348534067        18.337362287
    -5.641730270        14.077115157        18.337362287
    16.404818338         1.348534067        18.337362287
     9.055968619        14.077115157        18.337362287
     5.327424851         0.804141965        10.277362150
    -2.021424539        13.532722486        10.277362150
    20.025124836         0.804141965        10.277362150
    12.676275446        13.532722486        10.277362150
     5.327424851         0.804141965        18.337362287
    -2.021424539        13.532722486        18.337362287
    20.025124836         0.804141965        18.337362287
    12.676275446        13.532722486        18.337362287
    -0.316033157         2.152101331        14.291032556
    -7.664883149        14.880682895        14.291032556
    14.381666938         2.152101331        14.291032556
     7.032816945        14.880682895        14.291032556
    -0.316033157         2.152101331        22.351031960
    -7.664883149        14.880682895        22.351031960
    14.381666938         2.152101331        22.351031960
     7.032816945        14.880682895        22.351031960
     1.968667424         5.014547280        14.291032556
    -5.380182349        17.743128465        14.291032556
    16.666367847         5.014547280        14.291032556
     9.317518074        17.743128465        14.291032556
     1.968667424         5.014547280        22.351031960
    -5.380182349        17.743128465        22.351031960
    16.666367847         5.014547280        22.351031960
     9.317518074        17.743128465        22.351031960
     2.593201887         0.000000000         8.660437747
    -4.755647886        12.728581185         8.660437747
    17.290902091         0.000000000         8.660437747
     9.942052318        12.728581185         8.660437747
     2.593201887         0.000000000        16.720438617
    -4.755647886        12.728581185        16.720438617
    17.290902091         0.000000000        16.720438617
     9.942052318        12.728581185        16.720438617
     3.507425225         0.000000000        10.020647691
    -3.841424548        12.728581185        10.020647691
    18.205124553         0.000000000        10.020647691
    10.856274779        12.728581185        10.020647691
     3.507425225         0.000000000        18.080647828
    -3.841424548        12.728581185        18.080647828
    18.205124553         0.000000000        18.080647828
    10.856274779        12.728581185        18.080647828
     2.377823834         4.118511691         8.660437747
    -4.971025721        16.847092496         8.660437747
    17.075522942         4.118511691         8.660437747
     9.726673388        16.847092496         8.660437747
     2.377823834         4.118511691        16.720438617
    -4.971025721        16.847092496        16.720438617
    17.075522942         4.118511691        16.720438617
     9.726673388        16.847092496        16.720438617
     1.920712384         3.326771435        10.020647691
    -5.428137390        16.055352620        10.020647691
    16.618411930         3.326771435        10.020647691
     9.269562157        16.055352620        10.020647691
     1.920712384         3.326771435        18.080647828
    -5.428137390        16.055352620        18.080647828
    16.618411930         3.326771435        18.080647828
     9.269562157        16.055352620        18.080647828
    -1.296600944         2.245778712         8.660437747
    -8.645451046        14.974360465         8.660437747
    13.401098603         2.245778712         8.660437747
     6.052248501        14.974360465         8.660437747
    -1.296600944         2.245778712        16.720438617
    -8.645451046        14.974360465        16.720438617
    13.401098603         2.245778712        16.720438617
     6.052248501        14.974360465        16.720438617
    -1.753712722         3.037519536        10.020647691
    -9.102562276        15.766100342        10.020647691
    12.943986825         3.037519536        10.020647691
     5.595137270        15.766100342        10.020647691
    -1.753712722         3.037519536        18.080647828
    -9.102562276        15.766100342        18.080647828
    12.943986825         3.037519536        18.080647828
     5.595137270        15.766100342        18.080647828
     4.747537623         0.000000000        12.666903555
    -2.601312150        12.728581185        12.666903555
    19.445238046         0.000000000        12.666903555
    12.096388273        12.728581185        12.666903555
     4.747537623         0.000000000        20.726904426
    -2.601312150        12.728581185        20.726904426
    19.445238046         0.000000000        20.726904426
    12.096388273        12.728581185        20.726904426
     3.839795312         0.000000000        14.035172941
    -3.509054461        12.728581185        14.035172941
    18.537494859         0.000000000        14.035172941
    11.188645086        12.728581185        14.035172941
     3.839795312         0.000000000        22.095172346
    -3.509054461        12.728581185        22.095172346
    18.537494859         0.000000000        22.095172346
    11.188645086        12.728581185        22.095172346
     1.300655746         2.252802215        12.666903555
    -6.048193698        14.981382831        12.666903555
    15.998354855         2.252802215        12.666903555
     8.649505410        14.981382831        12.666903555
     1.300655746         2.252802215        20.726904426
    -6.048193698        14.981382831        20.726904426
    15.998354855         2.252802215        20.726904426
     8.649505410        14.981382831        20.726904426
     1.754527121         3.038930496        14.035172941
    -5.594322543        15.767511491        14.035172941
    16.452226668         3.038930496        14.035172941
     9.103377004        15.767511491        14.035172941
     1.754527121         3.038930496        22.095172346
    -5.594322543        15.767511491        22.095172346
    16.452226668         3.038930496        22.095172346
     9.103377004        15.767511491        22.095172346
    -2.373768812         4.111488187        12.666903555
    -9.722619023        16.840070131        12.666903555
    12.323930735         4.111488187        12.666903555
     4.975080524        16.840070131        12.666903555
    -2.373768812         4.111488187        20.726904426
    -9.722619023        16.840070131        20.726904426
    12.323930735         4.111488187        20.726904426
     4.975080524        16.840070131        20.726904426
    -1.919897656         3.325360286        14.035172941
    -9.268747429        16.053941470        14.035172941
    12.777801891         3.325360286        14.035172941
     5.428952117        16.053941470        14.035172941
    -1.919897656         3.325360286        22.095172346
    -9.268747429        16.053941470        22.095172346
    12.777801891         3.325360286        22.095172346
     5.428952117        16.053941470        22.095172346
     9.370640392         0.802357829        14.291032556
     2.021790291        13.530939582        14.291032556
    24.068339063         0.802357829        14.291032556
    16.719488961        13.530939582        14.291032556
     9.370640392         0.802357829        22.351031960
     2.021790291        13.530939582        22.351031960
    24.068339063         0.802357829        22.351031960
    16.719488961        13.530939582        22.351031960
    10.707241394         4.212189641        14.291032556
     3.358391183        16.940771584        14.291032556
    25.404940941         4.212189641        14.291032556
    18.056090729        16.940771584        14.291032556
    10.707241394         4.212189641        22.351031960
     3.358391183        16.940771584        22.351031960
    25.404940941         4.212189641        22.351031960
    18.056090729        16.940771584        22.351031960
     5.643092256         1.349743407        14.291032556
    -1.705757463        14.078324497        14.291032556
    20.340790927         1.349743407        14.291032556
    12.991941208        14.078324497        14.291032556
     5.643092256         1.349743407        22.351031960
    -1.705757463        14.078324497        22.351031960
    20.340790927         1.349743407        22.351031960
    12.991941208        14.078324497        22.351031960
     7.663153714         2.152676033        10.277362150
     0.314303503        14.881257976        10.277362150
    22.360854137         2.152676033        10.277362150
    15.012003926        14.881257976        10.277362150
     7.663153714         2.152676033        18.337362287
     0.314303503        14.881257976        18.337362287
    22.360854137         2.152676033        18.337362287
    15.012003926        14.881257976        18.337362287
     5.381543733         5.015756620        10.277362150
    -1.967306041        17.744337805        10.277362150
    20.079243280         5.015756620        10.277362150
    12.730393506        17.744337805        10.277362150
     5.381543733         5.015756620        18.337362287
    -1.967306041        17.744337805        18.337362287
    20.079243280         5.015756620        18.337362287
    12.730393506        17.744337805        18.337362287
     3.988729923         4.211614939        10.277362150
    -3.360120070        16.940196503        10.277362150
    18.686429908         4.211614939        10.277362150
    11.337579915        16.940196503        10.277362150
     3.988729923         4.211614939        18.337362287
    -3.360120070        16.940196503        18.337362287
    18.686429908         4.211614939        18.337362287
    11.337579915        16.940196503        18.337362287
     9.055969441         1.348534067        10.277362150
     1.707119722        14.077115157        10.277362150
    23.753669864         1.348534067        10.277362150
    16.404820145        14.077115157        10.277362150
     9.055969441         1.348534067        18.337362287
     1.707119722        14.077115157        18.337362287
    23.753669864         1.348534067        18.337362287
    16.404820145        14.077115157        18.337362287
    12.676275062         0.804141965        10.277362150
     5.327425672        13.532722486        10.277362150
    27.373974609         0.804141965        10.277362150
    20.025125219        13.532722486        10.277362150
    12.676275062         0.804141965        18.337362287
     5.327425672        13.532722486        18.337362287
    27.373974609         0.804141965        18.337362287
    20.025125219        13.532722486        18.337362287
     7.032816288         2.152101331        14.291032556
    -0.316033704        14.880682895        14.291032556
    21.730516711         2.152101331        14.291032556
    14.381666719        14.880682895        14.291032556
     7.032816288         2.152101331        22.351031960
    -0.316033704        14.880682895        22.351031960
    21.730516711         2.152101331        22.351031960
    14.381666719        14.880682895        22.351031960
     9.317516322         5.014547280        14.291032556
     1.968666548        17.743128465        14.291032556
    24.015215868         5.014547280        14.291032556
    16.666366095        17.743128465        14.291032556
     9.317516322         5.014547280        22.351031960
     1.968666548        17.743128465        22.351031960
    24.015215868         5.014547280        22.351031960
    16.666366095        17.743128465        22.351031960
     9.942052318         0.000000000         8.660437747
     2.593202544        12.728581185         8.660437747
    24.639751865         0.000000000         8.660437747
    17.290902091        12.728581185         8.660437747
     9.942052318         0.000000000        16.720438617
     2.593202544        12.728581185        16.720438617
    24.639751865         0.000000000        16.720438617
    17.290902091        12.728581185        16.720438617
    10.856275656         0.000000000        10.020647691
     3.507425882        12.728581185        10.020647691
    25.553974326         0.000000000        10.020647691
    18.205124553        12.728581185        10.020647691
    10.856275656         0.000000000        18.080647828
     3.507425882        12.728581185        18.080647828
    25.553974326         0.000000000        18.080647828
    18.205124553        12.728581185        18.080647828
     9.726673169         4.118511691         8.660437747
     2.377823614        16.847092496         8.660437747
    24.424372716         4.118511691         8.660437747
    17.075523161        16.847092496         8.660437747
     9.726673169         4.118511691        16.720438617
     2.377823614        16.847092496        16.720438617
    24.424372716         4.118511691        16.720438617
    17.075523161        16.847092496        16.720438617
     9.269562157         3.326771435        10.020647691
     1.920712384        16.055352620        10.020647691
    23.967261704         3.326771435        10.020647691
    16.618411930        16.055352620        10.020647691
     9.269562157         3.326771435        18.080647828
     1.920712384        16.055352620        18.080647828
    23.967261704         3.326771435        18.080647828
    16.618411930        16.055352620        18.080647828
     6.052248830         2.245778712         8.660437747
    -1.296601272        14.974360465         8.660437747
    20.749948377         2.245778712         8.660437747
    13.401098275        14.974360465         8.660437747
     6.052248830         2.245778712        16.720438617
    -1.296601272        14.974360465        16.720438617
    20.749948377         2.245778712        16.720438617
    13.401098275        14.974360465        16.720438617
     5.595137051         3.037519536        10.020647691
    -1.753712503        15.766100342        10.020647691
    20.292836598         3.037519536        10.020647691
    12.943987044        15.766100342        10.020647691
     5.595137051         3.037519536        18.080647828
    -1.753712503        15.766100342        18.080647828
    20.292836598         3.037519536        18.080647828
    12.943987044        15.766100342        18.080647828
    12.096388273         0.000000000        12.666903555
     4.747538499        12.728581185        12.666903555
    26.794087820         0.000000000        12.666903555
    19.445238046        12.728581185        12.666903555
    12.096388273         0.000000000        20.726904426
     4.747538499        12.728581185        20.726904426
    26.794087820         0.000000000        20.726904426
    19.445238046        12.728581185        20.726904426
    11.188645086         0.000000000        14.035172941
     3.839795312        12.728581185        14.035172941
    25.886344632         0.000000000        14.035172941
    18.537494859        12.728581185        14.035172941
    11.188645086         0.000000000        22.095172346
     3.839795312        12.728581185        22.095172346
    25.886344632         0.000000000        22.095172346
    18.537494859        12.728581185        22.095172346
     8.649504206         2.252802215        12.666903555
     1.300654761        14.981382831        12.666903555
    23.347204629         2.252802215        12.666903555
    15.998355184        14.981382831        12.666903555
     8.649504206         2.252802215        20.726904426
     1.300654761        14.981382831        20.726904426
    23.347204629         2.252802215        20.726904426
    15.998355184        14.981382831        20.726904426
     9.103376895         3.038930496        14.035172941
     1.754527231        15.767511491        14.035172941
    23.801076441         3.038930496        14.035172941
    16.452226777        15.767511491        14.035172941
     9.103376895         3.038930496        22.095172346
     1.754527231        15.767511491        22.095172346
    23.801076441         3.038930496        22.095172346
    16.452226777        15.767511491        22.095172346
     4.975080962         4.111488187        12.666903555
    -2.373769250        16.840070131        12.666903555
    19.672780509         4.111488187        12.666903555
    12.323930297        16.840070131        12.666903555
     4.975080962         4.111488187        20.726904426
    -2.373769250        16.840070131        20.726904426
    19.672780509         4.111488187        20.726904426
    12.323930297        16.840070131        20.726904426
     5.428952117         3.325360286        14.035172941
    -1.919897656        16.053941470        14.035172941
    20.126651664         3.325360286        14.035172941
    12.777801891        16.053941470        14.035172941
     5.428952117         3.325360286        22.095172346
    -1.919897656        16.053941470        22.095172346
    20.126651664         3.325360286        22.095172346
    12.777801891        16.053941470        22.095172346
    -1.652634158         7.166648990        14.291032556
    -9.001483932        19.895230175        14.291032556
    13.045065827         7.166648990        14.291032556
     5.696216053        19.895230175        14.291032556
    -1.652634158         7.166648990        22.351031960
    -9.001483932        19.895230175        22.351031960
    13.045065827         7.166648990        22.351031960
     5.696216053        19.895230175        22.351031960
    -0.316032828        10.576480233        14.291032556
    -7.664883039        23.305062177        14.291032556
    14.381666281        10.576480233        14.291032556
     7.032816069        23.305062177        14.291032556
    -0.316032828        10.576480233        22.351031960
    -7.664883039        23.305062177        22.351031960
    14.381666281        10.576480233        22.351031960
     7.032816069        23.305062177        22.351031960
     1.653000348         5.560148532        10.277362150
    -5.695848988        18.288728958        10.277362150
    16.350699018         5.560148532        10.277362150
     9.001849683        18.288728958        10.277362150
     1.653000348         5.560148532        18.337362287
    -5.695848988        18.288728958        18.337362287
    16.350699018         5.560148532        18.337362287
     9.001849683        18.288728958        18.337362287
    -3.360119741         8.516966625        10.277362150
   -10.708969953        21.245548569        10.277362150
    11.337579477         8.516966625        10.277362150
     3.988729266        21.245548569        10.277362150
    -3.360119741         8.516966625        18.337362287
   -10.708969953        21.245548569        18.337362287
    11.337579477         8.516966625        18.337362287
     3.988729266        21.245548569        18.337362287
    -5.641730380        11.380047971        10.277362150
   -12.990579715        24.108628397        10.277362150
     9.055969934        11.380047971        10.277362150
     1.707120598        24.108628397        10.277362150
    -5.641730380        11.380047971        18.337362287
   -12.990579715        24.108628397        18.337362287
     9.055969934        11.380047971        18.337362287
     1.707120598        24.108628397        18.337362287
    -1.967305165         7.712824565        10.277362150
    -9.316154938        20.441405750        10.277362150
    12.730395258         7.712824565        10.277362150
     5.381545485        20.441405750        10.277362150
    -1.967305165         7.712824565        18.337362287
    -9.316154938        20.441405750        18.337362287
    12.730395258         7.712824565        18.337362287
     5.381545485        20.441405750        18.337362287
     1.653000786         7.168432653        10.277362150
    -5.695849426        19.897014596        10.277362150
    16.350699894         7.168432653        10.277362150
     9.001849683        19.897014596        10.277362150
     1.653000786         7.168432653        18.337362287
    -5.695849426        19.897014596        18.337362287
    16.350699894         7.168432653        18.337362287
     9.001849683        19.897014596        18.337362287
    -3.990458481         8.516393061        14.291032556
   -11.339308693        21.244975005        14.291032556
    10.707241394         8.516393061        14.291032556
     3.358391183        21.244975005        14.291032556
    -3.990458481         8.516393061        22.351031960
   -11.339308693        21.244975005        22.351031960
    10.707241394         8.516393061        22.351031960
     3.358391183        21.244975005        22.351031960
    -1.705757901        11.378838631        14.291032556
    -9.054608112        24.107420574        14.291032556
    12.991942522        11.378838631        14.291032556
     5.643092311        24.107420574        14.291032556
    -1.705757901        11.378838631        22.351031960
    -9.054608112        24.107420574        22.351031960
    12.991942522        11.378838631        22.351031960
     5.643092311        24.107420574        22.351031960
    -1.652634049         5.561932574        14.291032556
    -9.001483603        18.290513379        14.291032556
    13.045065608         5.561932574        14.291032556
     5.696216053        18.290513379        14.291032556
    -1.652634049         5.561932574        22.351031960
    -9.001483603        18.290513379        22.351031960
    13.045065608         5.561932574        22.351031960
     5.696216053        18.290513379        22.351031960
    -1.081222999         6.364290592         8.660437747
    -8.430072773        19.092871777         8.660437747
    13.616477205         6.364290592         8.660437747
     6.267627431        19.092871777         8.660437747
    -1.081222999         6.364290592        16.720438617
    -8.430072773        19.092871777        16.720438617
    13.616477205         6.364290592        16.720438617
     6.267627431        19.092871777        16.720438617
    -0.166999662         6.364290592        10.020647691
    -7.515849435        19.092871777        10.020647691
    14.530699666         6.364290592        10.020647691
     7.181849893        19.092871777        10.020647691
    -0.166999662         6.364290592        18.080647828
    -7.515849435        19.092871777        18.080647828
    14.530699666         6.364290592        18.080647828
     7.181849893        19.092871777        18.080647828
    -1.296600834        10.482802663         8.660437747
    -8.645450170        23.211383089         8.660437747
    13.401097837        10.482802663         8.660437747
     6.052248501        23.211383089         8.660437747
    -1.296600834        10.482802663        16.720438617
    -8.645450170        23.211383089        16.720438617
    13.401097837        10.482802663        16.720438617
     6.052248501        23.211383089        16.720438617
    -1.753712503         9.691062028        10.020647691
    -9.102562276        22.419643212        10.020647691
    12.943987044         9.691062028        10.020647691
     5.595137270        22.419643212        10.020647691
    -1.753712503         9.691062028        18.080647828
    -9.102562276        22.419643212        18.080647828
    12.943987044         9.691062028        18.080647828
     5.595137270        22.419643212        18.080647828
    -4.971026159         8.610069873         8.660437747
   -12.319875932        21.338651058         8.660437747
     9.726673388         8.610069873         8.660437747
     2.377823614        21.338651058         8.660437747
    -4.971026159         8.610069873        16.720438617
   -12.319875932        21.338651058        16.720438617
     9.726673388         8.610069873        16.720438617
     2.377823614        21.338651058        16.720438617
    -5.428137828         9.401810508        10.020647691
   -12.776987163        22.130390934        10.020647691
     9.269561719         9.401810508        10.020647691
     1.920712384        22.130390934        10.020647691
    -5.428137828         9.401810508        18.080647828
   -12.776987163        22.130390934        18.080647828
     9.269561719         9.401810508        18.080647828
     1.920712384        22.130390934        18.080647828
     1.073113175         6.364290592        12.666903555
    -6.275736599        19.092871777        12.666903555
    15.770813160         6.364290592        12.666903555
     8.421963386        19.092871777        12.666903555
     1.073113175         6.364290592        20.726904426
    -6.275736599        19.092871777        20.726904426
    15.770813160         6.364290592        20.726904426
     8.421963386        19.092871777        20.726904426
     0.165370863         6.364290592        14.035172941
    -7.183478910        19.092871777        14.035172941
    14.863069972         6.364290592        14.035172941
     7.514220199        19.092871777        14.035172941
     0.165370863         6.364290592        22.095172346
    -7.183478910        19.092871777        22.095172346
    14.863069972         6.364290592        22.095172346
     7.514220199        19.092871777        22.095172346
    -2.373768812         8.617092997        12.666903555
    -9.722618147        21.345673423        12.666903555
    12.323929859         8.617092997        12.666903555
     4.975080524        21.345673423        12.666903555
    -2.373768812         8.617092997        20.726904426
    -9.722618147        21.345673423        20.726904426
    12.323929859         8.617092997        20.726904426
     4.975080524        21.345673423        20.726904426
    -1.919898313         9.403222416        14.035172941
    -9.268748087        22.131803601        14.035172941
    12.777801015         9.403222416        14.035172941
     5.428951241        22.131803601        14.035172941
    -1.919898313         9.403222416        22.095172346
    -9.268748087        22.131803601        22.095172346
    12.777801015         9.403222416        22.095172346
     5.428951241        22.131803601        22.095172346
    -6.048194136        10.475779538        12.666903555
   -13.397043910        23.204360723        12.666903555
     8.649505410        10.475779538        12.666903555
     1.300655637        23.204360723        12.666903555
    -6.048194136        10.475779538        20.726904426
   -13.397043910        23.204360723        20.726904426
     8.649505410        10.475779538        20.726904426
     1.300655637        23.204360723        20.726904426
    -5.594322543         9.689650878        14.035172941
   -12.943172316        22.418232063        14.035172941
     9.103377004         9.689650878        14.035172941
     1.754527231        22.418232063        14.035172941
    -5.594322543         9.689650878        22.095172346
   -12.943172316        22.418232063        22.095172346
     9.103377004         9.689650878        22.095172346
     1.754527231        22.418232063        22.095172346
     5.696216053         7.166648990        14.291032556
    -1.652633720        19.895230175        14.291032556
    20.393915600         7.166648990        14.291032556
    13.045065827        19.895230175        14.291032556
     5.696216053         7.166648990        22.351031960
    -1.652633720        19.895230175        22.351031960
    20.393915600         7.166648990        22.351031960
    13.045065827        19.895230175        22.351031960
     7.032816507        10.576480233        14.291032556